Lupine sphere-grid knowledge graph
3792 atoms
7558 bonds
7 atom types
1 bond types

-32.010889 37.989111 xlo xhi
-36.680930 28.477921 ylo yhi
-25.539479 26.279833 zlo zhi

Masses
21 44.956
24 51.996
26 55.845
27 58.933
28 58.693
29 63.546
30 65.380

Atoms # atomic
1 27 11.738803 -15.826676 14.438593
2 27 19.446248 -13.598887 6.389491
3 27 17.259411 -14.759022 15.408509
4 27 18.004201 -13.378897 15.702662
5 27 14.444460 -11.507969 10.492978
6 27 17.186368 -12.673554 9.403428
7 27 20.297837 -11.944467 13.862283
8 27 16.266634 -14.358553 13.505236
9 27 18.226875 -11.724356 12.070293
10 27 16.965180 -9.278982 10.761986
11 27 13.723300 -12.024309 15.252935
12 27 20.331300 -14.049594 12.576136
13 27 15.868894 -15.874129 12.218220
14 27 14.951843 -12.600283 16.183248
15 27 16.550045 -13.894618 10.081355
16 27 16.225375 -12.472526 13.556869
17 27 18.953829 -16.170989 10.973156
18 27 18.269982 -16.440016 12.568141
19 27 18.001829 -13.049728 10.841682
20 27 17.313096 -10.373979 13.743395
21 27 19.249571 -12.139991 8.386623
22 27 14.466727 -14.736276 9.168543
23 27 17.682340 -8.760430 12.021259
24 27 20.201545 -10.257315 10.466669
25 27 19.696809 -15.331734 11.879551
26 27 16.705956 -13.406350 14.731417
27 27 14.822276 -11.971602 13.073182
28 27 15.412948 -11.533402 11.692088
29 27 17.537847 -14.889844 13.088444
30 27 14.189924 -10.478482 13.823976
31 27 19.254953 -10.982681 14.775395
32 27 16.676942 -16.564886 13.470061
33 27 17.274451 -9.279308 14.882877
34 27 15.705265 -12.661558 10.458949
35 27 20.898828 -12.622219 12.391988
36 27 19.304909 -12.751058 14.861844
37 27 16.202883 -14.511784 11.755522
38 27 19.095826 -14.709928 8.690334
39 27 13.362429 -11.812247 13.757098
40 27 18.266303 -13.351673 8.109256
41 27 15.785817 -11.260597 16.121802
42 27 16.986186 -12.118707 16.279833
43 27 20.065210 -11.357547 12.395496
44 27 16.276416 -15.597203 14.689741
45 27 14.948997 -13.229578 11.794502
46 27 16.828640 -11.468638 10.776440
47 27 16.572947 -15.398651 10.387181
48 27 17.507119 -15.450109 11.649761
49 27 18.990510 -8.957395 13.037559
50 27 16.207622 -9.200308 12.560686
51 27 15.775534 -10.825920 13.924746
52 27 19.547573 -12.884818 11.346033
53 27 15.158468 -16.142431 9.678414
54 27 19.224156 -10.565432 9.136639
55 27 20.522047 -14.135527 11.084150
56 27 20.049394 -10.328267 13.576329
57 27 18.402350 -11.849676 15.640358
58 27 16.739373 -13.940124 7.971392
59 27 16.055215 -9.970530 15.399788
60 27 13.569665 -12.728908 11.203260
61 27 14.789349 -16.833000 12.723293
62 27 13.145485 -13.297607 14.438346
63 27 15.094730 -13.744960 14.450238
64 27 16.906415 -12.442857 7.934060
65 27 14.685794 -16.675246 11.265548
66 27 15.610872 -9.297350 14.004450
67 27 16.221795 -13.455108 16.181720
68 27 18.415368 -15.927264 9.526130
69 27 15.511197 -14.714317 15.689574
70 27 16.603857 -10.919533 12.520924
71 27 17.581520 -16.795947 10.689296
72 27 19.105253 -9.205781 11.500920
73 27 16.012825 -16.952407 10.687201
74 27 19.888363 -13.744163 13.917882
75 27 18.022190 -11.296746 8.320341
76 27 14.943571 -14.908847 13.230538
77 27 18.491938 -14.560354 10.819194
78 27 13.788083 -11.337312 12.070018
79 27 15.651325 -9.902186 11.311064
80 27 18.612406 -14.037919 12.290664
81 27 15.437526 -13.572124 8.623853
82 27 13.359265 -15.824020 12.047182
83 27 13.706063 -15.725475 13.522702
84 27 14.031586 -13.751236 15.590624
85 27 13.008902 -14.342272 13.436301
86 27 18.168143 -11.508552 9.965541
87 27 17.341755 -8.741515 13.500626
88 27 19.840815 -14.923642 10.034400
89 27 14.526925 -14.822435 11.777192
90 27 16.838407 -16.323049 9.210084
91 27 13.827456 -15.689894 10.502822
92 27 20.736488 -12.982806 10.220294
93 27 16.564592 -11.161530 8.922393
94 27 17.808087 -14.304718 9.490937
95 27 12.957813 -12.813354 12.654739
96 27 20.301392 -9.976697 12.034074
97 27 15.182891 -16.312214 14.115005
98 27 18.114229 -11.757699 13.830349
99 27 19.207616 -11.254433 10.967078
100 27 17.955790 -13.393059 13.809442
101 27 14.345226 -13.440905 13.161055
102 27 17.574222 -15.180366 8.249995
103 27 17.857711 -15.828505 14.207844
104 27 14.808893 -10.107818 12.512153
105 27 16.722226 -17.109436 12.081241
106 27 14.610813 -10.671563 15.258205
107 27 15.400703 -12.112483 9.001247
108 27 14.272977 -13.051926 9.723058
109 27 17.724171 -10.332050 11.502949
110 27 20.284159 -11.681954 9.516096
111 27 18.731680 -9.622889 14.443127
112 27 12.939714 -14.252031 11.915799
113 27 14.216921 -15.113804 14.851634
114 27 18.702296 -14.482123 14.691948
115 27 15.159845 -12.213795 14.700912
116 27 18.661413 -9.535147 10.193834
117 27 20.913042 -11.649035 11.102677
118 27 17.433215 -10.078794 9.521193
119 27 15.185331 -14.434042 10.444117
120 27 18.994551 -12.971549 9.776218
121 27 17.656204 -10.530575 15.689033
122 27 20.037247 -13.508394 8.929765
123 27 15.934473 -15.142127 8.634969
124 27 18.599712 -10.446183 12.847780
125 27 19.143329 -12.638505 12.967834
126 27 15.701670 -10.611770 10.041960
127 27 16.881730 -11.691880 14.788977
128 27 19.207839 -15.262162 13.351571
129 27 13.473930 -14.165191 10.500372
130 27 16.993268 -12.854212 12.230081
131 27 16.832241 -13.059217 12.024618
132 24 22.903840 -1.496749 -6.619537
133 24 22.349087 -1.779640 -0.105508
134 24 21.365016 -2.458740 0.800185
135 24 21.977713 -3.559916 -0.468989
136 24 21.010866 -1.661705 -0.695349
137 24 22.683677 -3.320824 0.753453
138 24 22.106732 -2.352526 -1.400833
139 24 22.641458 2.957129 -1.604982
140 24 23.158907 -4.132353 -4.238765
141 24 25.768528 4.628113 0.399173
142 24 26.610437 1.031746 -1.829576
143 24 26.109785 2.619515 -4.960974
144 24 27.281411 -1.577679 0.081630
145 24 27.791594 1.257616 1.973641
146 24 24.312257 6.514245 -3.059014
147 24 21.017734 0.762150 -3.507178
148 24 24.962791 -2.770870 0.897054
149 24 26.938962 5.348614 -0.084005
150 24 25.423696 3.899586 -1.372248
151 24 23.576220 6.835119 1.030630
152 24 25.807673 -1.183445 0.213486
153 24 27.964784 3.088975 -0.189985
154 24 22.202148 -3.282561 -2.889474
155 24 22.558342 5.863554 2.546466
156 24 24.867298 3.661895 -5.075901
157 24 22.828093 4.515353 -4.866279
158 24 26.084921 0.310884 -2.926788
159 24 23.744851 2.372726 2.532366
160 24 25.726693 3.472122 -3.638638
161 24 22.424548 0.486973 0.398061
162 24 25.524529 0.028471 2.022768
163 24 26.716050 2.987322 -0.645386
164 24 22.941712 2.735037 -4.621175
165 24 21.004769 1.628593 -5.078724
166 24 23.300830 5.416893 -0.984840
167 24 23.570457 7.025361 -1.453264
168 24 20.987971 1.132688 1.923500
169 24 25.489665 -4.065758 0.415313
170 24 26.051683 4.394120 -5.014203
171 24 26.470675 -2.591029 1.196609
172 24 25.708831 -3.978497 -1.390066
173 24 22.347909 3.549708 3.994457
174 24 23.714927 -1.526936 2.869040
175 24 22.445949 -2.162078 2.304152
176 24 24.603860 -1.962459 4.201471
177 24 23.214160 -2.915915 3.562458
178 24 22.385872 -1.598174 3.763089
179 24 23.842661 -3.315867 2.333937
180 24 23.594583 -0.992687 4.438292
181 24 24.682781 5.735402 -4.276993
182 24 25.599187 2.260959 0.626279
183 24 24.590305 1.336383 -6.890130
184 24 23.334414 3.473187 5.155345
185 24 24.111299 0.123861 -1.571202
186 24 27.989111 1.219214 -1.385911
187 24 23.445847 5.020092 4.772145
188 24 21.859132 0.189532 3.936862
189 24 21.594396 -0.288501 2.488292
190 24 23.728500 6.358793 3.314298
191 24 26.714103 -0.907976 2.332384
192 24 24.302872 0.862915 3.438778
193 24 26.818623 -3.221888 -0.326652
194 24 24.325356 2.586022 -2.256845
195 24 22.129571 5.727031 -4.735128
196 24 23.245586 -4.865274 -2.001341
197 24 21.677341 2.282366 -0.313828
198 24 25.894865 0.675660 -6.382436
199 24 22.397357 3.981102 -0.355085
200 24 25.085461 -1.866122 -5.052737
201 24 23.330608 5.162609 0.738182
202 24 21.953256 1.405404 -6.319862
203 24 27.459953 1.526528 -2.967495
204 24 25.262868 2.274017 2.566232
205 24 22.167108 1.118712 2.652950
206 24 21.356296 2.202864 3.056073
207 24 22.289764 2.866747 -6.089574
208 24 24.205826 0.094130 0.440885
209 24 23.029493 -0.369359 -4.228436
210 24 23.775549 1.748665 -5.291616
211 24 21.381964 2.978473 -4.554486
212 24 24.381536 5.339781 2.415558
213 24 22.490625 6.540409 -2.927354
214 24 21.672210 -0.535595 -3.795707
215 24 22.384132 1.327987 -4.356111
216 24 25.530933 6.577004 -1.556056
217 24 26.592928 3.663946 3.305037
218 24 23.710006 0.709372 5.128937
219 24 22.037110 4.280592 2.451936
220 24 23.338913 5.308713 -3.569978
221 24 23.361490 6.751064 -4.301556
222 24 21.897323 5.114172 -3.250260
223 24 27.503668 3.529177 1.715128
224 24 23.946442 3.683031 -3.012549
225 24 20.717730 1.746481 -1.184501
226 24 27.559160 3.535955 -1.734121
227 24 21.369158 0.065409 -5.173334
228 24 26.359986 -2.845021 -2.278349
229 24 22.526964 0.803181 -1.252102
230 24 24.870147 5.460400 -0.650631
231 24 23.461753 4.507982 3.299711
232 24 27.104774 3.202057 -3.822728
233 24 24.681470 3.868595 4.409722
234 24 22.132185 5.107493 3.847127
235 24 24.248640 -2.024306 -0.867415
236 24 24.867107 5.266612 3.874815
237 24 25.658512 -2.272285 -0.566534
238 24 26.305577 0.887803 0.129939
239 24 25.844725 6.110842 0.989509
240 24 26.457159 1.421685 1.864577
241 24 23.723096 0.841416 -3.866083
242 24 23.014638 0.429205 -5.586208
243 24 26.264681 -0.361687 -4.957023
244 24 26.150451 3.632327 1.868794
245 24 24.507056 3.493047 1.028815
246 24 22.830929 1.900987 0.671762
247 24 25.420498 1.982415 -1.017846
248 24 24.032051 3.513110 -0.619807
249 24 22.965590 3.232574 1.109960
250 24 24.103786 1.199153 1.400599
251 24 27.576958 -0.111818 -2.203569
252 24 21.528056 -0.136602 -1.786146
253 24 24.861088 7.058208 -0.227108
254 24 23.779896 -1.030393 1.050347
255 24 25.064378 -2.391370 2.896052
256 24 21.844260 1.983349 -3.252364
257 24 26.930566 0.951488 3.310539
258 24 22.120617 6.070722 0.809180
259 24 25.826981 -0.592483 3.476069
260 24 22.107065 1.476094 4.382283
261 24 26.363815 4.838347 -3.584331
262 24 23.729426 5.370230 -5.540349
263 24 21.495324 3.603064 -2.326765
264 24 22.362486 6.730344 -0.840651
265 24 25.634743 -1.404668 -1.886938
266 24 26.418452 5.015886 2.341151
267 24 26.251498 5.018262 -1.991249
268 24 25.110440 0.540875 4.812654
269 24 24.964786 1.920220 -3.323875
270 24 21.400652 4.965582 -0.832699
271 24 25.845880 2.223483 4.141132
272 24 20.817191 3.127679 0.308339
273 24 24.349310 -3.551919 -0.424741
274 24 23.640406 -0.913261 -2.417033
275 24 27.682483 0.394280 0.322377
276 24 23.891663 2.225329 4.167271
277 24 21.203924 -0.211378 0.476656
278 24 24.619733 -3.176178 -5.189180
279 24 26.894057 -1.169209 -4.158084
280 24 24.657145 2.792474 -6.951746
281 24 22.127297 -3.587354 -4.665849
282 24 22.372165 -2.289659 -5.707580
283 24 21.266954 -2.535266 -3.181913
284 24 23.356488 -0.470512 -7.395811
285 24 21.737426 -1.017241 -6.741154
286 24 24.043644 -2.022441 -6.638010
287 24 23.589873 -5.155241 -0.872666
288 24 24.758970 -2.963561 -2.112470
289 24 27.159533 -1.856259 -1.425394
290 24 24.238506 -1.961806 -4.074119
291 24 26.972951 0.690746 -4.821688
292 24 23.518545 1.814423 -7.601248
293 24 25.850297 -2.778136 -4.308236
294 24 23.159475 -4.164018 -3.009341
295 24 25.221214 -0.236093 -5.884210
296 24 24.221742 2.188724 0.087760
297 24 24.096764 1.314569 -0.960225
298 29 -13.416654 -20.044433 -0.785168
299 29 -12.041623 -20.517810 -1.417758
300 29 -15.190164 -22.502682 -3.984650
301 29 -12.599047 -22.196885 2.239840
302 29 -12.356793 -22.294678 -3.155724
303 29 -13.074758 -22.784191 3.369270
304 29 -12.156081 -21.342991 3.224093
305 29 -15.974274 -22.392347 -2.491185
306 29 -16.215564 -20.283922 1.556548
307 29 -15.816100 -20.520389 -3.328178
308 29 -12.122441 -19.721705 -2.448527
309 29 -13.810337 -18.744645 -1.075478
310 29 -12.670206 -21.760511 -1.624154
311 29 -14.590863 -23.763345 0.161114
312 29 -12.187727 -23.442398 1.080079
313 29 -13.886624 -22.557659 -1.824055
314 29 -13.689907 -23.609383 1.327096
315 29 -13.629290 -22.165120 0.827672
316 29 -14.041495 -23.981791 -1.524636
317 29 -12.740513 -20.592327 0.469512
318 29 -11.549802 -23.602716 -0.388472
319 29 -11.159919 -22.481919 0.632400
320 29 -14.087820 -19.645493 -4.227372
321 29 -16.739686 -21.983490 -3.724968
322 29 -13.048965 -24.104806 -0.197915
323 29 -16.559979 -18.578834 -2.391006
324 29 -17.800758 -19.848364 -2.278220
325 29 -17.760719 -20.193658 2.535185
326 29 -14.963783 -20.743529 3.931800
327 29 -14.427290 -18.973180 2.168362
328 29 -13.923387 -20.196412 2.850949
329 29 -16.109451 -18.229319 0.539864
330 29 -17.662052 -18.350649 0.906906
331 29 -17.305610 -18.750347 2.423229
332 29 -11.801980 -21.210550 1.199336
333 29 -13.019454 -23.415777 -3.729234
334 29 -11.092778 -22.717633 -3.212876
335 29 -16.246615 -19.897233 0.056217
336 29 -16.909573 -20.094947 -4.612366
337 29 -15.327071 -19.809007 -5.095253
338 29 -17.679778 -20.769279 -3.421541
339 29 -14.580924 -21.364074 -3.232283
340 29 -14.324077 -21.091516 -4.846686
341 29 -15.152655 -18.711335 -2.933927
342 29 -15.929207 -19.108727 3.476879
343 29 -14.381746 -19.922723 -2.789886
344 29 -15.870605 -21.313516 -4.925693
345 29 -16.063954 -20.156906 -2.031517
346 29 -12.423050 -23.658558 -1.654331
347 29 -11.813214 -21.080863 -3.761457
348 29 -11.139341 -22.419166 -1.237487
349 29 -11.284161 -21.253260 -0.278293
350 29 -17.057287 -22.397593 0.442194
351 29 -12.579252 -22.064785 -4.647792
352 29 -17.097953 -18.714475 -0.418607
353 29 -16.032898 -18.809621 -4.144007
354 29 -16.038562 -21.919271 3.208373
355 29 -17.482927 -19.024655 -3.492142
356 29 -17.205800 -21.592295 -2.169750
357 29 -14.829442 -21.798161 2.416918
358 29 -15.485932 -20.263272 2.693382
359 29 -14.577961 -20.362728 1.282358
360 29 -16.016286 -22.674743 1.720665
361 29 -14.874563 -18.992256 0.590447
362 29 -17.232798 -21.686111 2.157156
363 29 -16.774449 -20.479017 3.577025
364 29 -17.360872 -21.076844 -0.246450
365 29 -15.921226 -18.486436 1.998142
366 29 -18.078148 -21.101846 1.036576
367 29 -18.273810 -19.598526 1.299896
368 29 -15.895910 -21.502894 0.693181
369 29 -18.228020 -19.769802 -0.152176
370 29 -14.996088 -22.879702 -0.806404
371 29 -13.066148 -22.240941 -0.391619
372 29 -14.807403 -21.029753 -0.592061
373 28 -1.600296 -24.457499 7.021465
374 28 -1.608339 -22.437879 9.603278
375 28 -4.777639 -22.211508 8.235824
376 28 -1.653345 -23.731937 9.782781
377 28 -5.343611 -23.888232 10.512003
378 28 -6.217464 -23.097591 8.298760
379 28 -2.016837 -24.877625 10.199993
380 28 -4.908045 -23.500511 9.112071
381 28 -4.166344 -24.977931 6.120400
382 28 -1.411192 -24.405640 8.421342
383 28 -5.571964 -23.528652 6.037162
384 28 -3.936447 -22.983706 6.507392
385 28 -5.797961 -25.018135 6.917835
386 28 -2.221578 -23.241478 10.937891
387 28 -5.651628 -22.390652 9.824618
388 28 -6.089661 -24.471738 9.005090
389 28 -3.580108 -24.648107 5.083704
390 28 -3.566223 -22.394303 9.089371
391 28 -4.660337 -25.239122 8.776184
392 28 -1.927177 -25.454884 6.363366
393 28 -1.980926 -23.414638 6.427167
394 28 -3.983891 -24.520241 10.023271
395 28 -1.996670 -25.633509 8.417567
396 28 -0.763495 -23.348799 8.158542
397 28 -4.163836 -22.706784 10.530817
398 28 -3.880571 -26.074939 6.649606
399 28 -4.856506 -23.990472 7.028166
400 28 -3.596623 -23.960603 8.244228
401 30 8.644534 -20.187752 -2.195440
402 30 9.678190 -21.657543 -1.657664
403 30 6.403587 -22.894699 -1.247345
404 30 11.809724 -17.335852 -9.299763
405 30 11.618245 -23.051127 -1.342189
406 30 12.085084 -24.039223 -4.422845
407 30 14.510296 -17.925815 -2.993802
408 30 13.922384 -19.600687 -6.259661
409 30 7.953335 -20.130239 -9.327018
410 30 14.297624 -19.682593 -4.362580
411 30 8.884205 -24.091394 -4.292914
412 30 7.306364 -16.608932 -9.045969
413 30 9.820694 -18.114613 -7.704501
414 30 10.803377 -16.432252 -6.080268
415 30 11.358261 -22.209026 0.004584
416 30 11.447041 -17.514975 -10.801927
417 30 8.654213 -22.660269 -3.476205
418 30 9.644794 -24.799079 -2.766029
419 30 8.694670 -17.173641 -6.268685
420 30 14.055178 -16.802403 -8.989631
421 30 5.259767 -18.424874 -6.821951
422 30 14.984612 -17.266470 -7.964433
423 30 12.380999 -25.333636 -3.891354
424 30 6.600425 -19.296517 -8.985796
425 30 10.758184 -19.869296 -1.149848
426 30 7.221154 -19.306466 -6.499615
427 30 4.662704 -20.915772 -7.505347
428 30 8.276824 -19.700235 -12.443064
429 30 14.776022 -21.084248 -9.838100
430 30 7.848188 -16.770103 -7.520968
431 30 9.499354 -25.307318 -1.252194
432 30 9.090910 -26.454840 -6.319065
433 30 11.756571 -24.504563 -0.910094
434 30 11.138448 -16.038370 -10.157554
435 30 6.141756 -18.660494 -5.536442
436 30 3.743614 -25.849624 -6.987452
437 30 12.480194 -24.194478 -2.209900
438 30 7.759877 -19.508104 -3.452962
439 30 12.230015 -16.487860 -11.299495
440 30 11.196471 -23.526467 0.337141
441 30 11.760366 -16.085336 -8.498984
442 30 13.364250 -17.974110 -7.745978
443 30 10.110249 -25.337472 -5.744763
444 30 4.765222 -23.138456 -11.208817
445 30 11.514824 -20.492160 0.098325
446 30 8.445479 -25.987375 -2.248142
447 30 10.898975 -26.086706 -4.784400
448 30 7.639124 -17.944350 -5.480242
449 30 9.176839 -19.147918 -8.638779
450 30 8.272331 -18.890875 -10.121205
451 30 13.619256 -16.340398 -7.503695
452 30 5.950637 -17.928707 -10.708901
453 30 6.779943 -17.515921 -6.583970
454 30 7.541612 -18.241045 -8.215606
455 30 5.840362 -20.806636 -12.633255
456 30 11.142696 -17.868491 -5.726201
457 30 9.440038 -26.680930 -5.003004
458 30 9.435130 -16.687812 -7.622563
459 30 8.543078 -18.174869 -11.946296
460 30 9.498352 -18.956012 -3.132271
461 30 9.954955 -18.486786 -4.471817
462 30 4.922767 -23.374646 -7.440658
463 30 10.307640 -23.719452 -0.750173
464 30 12.088728 -22.114195 -9.575896
465 30 13.442887 -24.569654 -4.718401
466 30 6.539672 -19.324084 -10.279205
467 30 10.784306 -25.607206 -2.410821
468 30 12.080607 -19.359468 -0.511696
469 30 11.864925 -16.515068 -5.095960
470 30 8.592595 -18.585354 -6.928065
471 30 11.944877 -17.029715 -6.780734
472 30 8.019986 -19.557030 -0.996779
473 30 9.570139 -26.312725 -3.119897
474 30 10.102542 -26.110424 -7.228632
475 30 11.221757 -21.314448 -2.695917
476 30 9.372284 -19.864700 -5.108832
477 30 12.742747 -22.157258 -0.530894
478 30 13.221950 -17.328213 -10.586577
479 30 4.970161 -18.825739 -9.964242
480 30 10.376988 -23.637923 -5.348442
481 30 10.193864 -22.831742 -4.247627
482 30 8.142023 -20.174518 -4.712920
483 30 7.737408 -21.335826 -4.032254
484 30 11.542902 -21.294310 -4.234306
485 30 9.106553 -21.213582 -3.408414
486 30 10.211862 -20.349103 -3.025242
487 30 14.691637 -18.121775 -9.126529
488 30 8.695721 -22.194491 -5.074644
489 30 11.847206 -22.704911 -5.172527
490 30 4.142460 -25.875735 -5.304233
491 30 4.898788 -18.476129 -8.479366
492 30 4.246321 -20.467869 -5.868509
493 30 15.709083 -20.724270 -3.995039
494 30 15.044087 -18.881330 -6.847387
495 30 4.824857 -23.678687 -4.330527
496 30 10.649148 -24.228899 -8.170182
497 30 14.122705 -16.900790 -4.894242
498 30 12.494779 -21.120843 -7.719554
499 30 12.978685 -23.887562 -10.021780
500 30 9.938680 -21.530183 -9.480614
501 30 14.368015 -21.045061 -8.412516
502 30 7.008391 -21.898672 -2.079373
503 30 13.160994 -20.069588 -8.597179
504 30 9.982406 -24.183153 -11.037750
505 30 12.293118 -24.852808 -8.794980
506 30 3.960461 -21.268447 -4.623957
507 30 14.522097 -22.551051 -9.348683
508 30 15.648994 -17.862897 -4.524918
509 30 8.464630 -17.604350 -13.280452
510 30 9.996244 -20.255648 0.364973
511 30 10.759994 -18.745088 -12.854500
512 30 6.544883 -20.054190 -13.669075
513 30 11.466339 -21.298111 -12.250721
514 30 12.038505 -24.143126 -7.469708
515 30 6.348303 -24.284109 -4.724730
516 30 6.150357 -24.525666 -8.690538
517 30 4.486229 -24.094435 -8.897063
518 30 6.195174 -22.977388 -10.706512
519 30 5.261033 -21.648817 -10.475264
520 30 7.376403 -22.416475 -8.012358
521 30 3.437112 -23.699084 -7.470901
522 30 3.675565 -24.656224 -5.947003
523 30 6.318313 -23.238726 -7.189184
524 30 7.941373 -24.633252 -8.000052
525 30 5.811665 -23.050926 -8.886813
526 30 6.513437 -24.803894 -7.189847
527 30 2.406486 -24.091661 -5.454815
528 30 6.732304 -22.068294 -9.470638
529 30 3.575313 -22.768974 -4.227758
530 30 2.116428 -23.012056 -8.350933
531 30 5.032391 -25.276909 -4.304575
532 30 5.280042 -26.367751 -6.492038
533 30 7.457173 -23.584813 -9.067092
534 30 3.441799 -24.475737 -4.336923
535 30 4.876507 -24.943926 -7.434988
536 30 7.045265 -24.132263 -10.451071
537 30 5.641552 -21.003952 -5.548820
538 30 5.568515 -24.439981 -10.597835
539 30 3.550727 -22.920322 -5.923509
540 30 4.499129 -22.705567 -9.607002
541 30 5.288410 -22.085062 -4.614139
542 30 11.646433 -20.192927 -10.913178
543 30 15.239321 -21.974509 -3.594920
544 30 3.907861 -22.283048 -8.302795
545 30 2.967185 -22.055949 -7.069186
546 30 9.660161 -18.543178 -13.701552
547 30 14.493269 -22.565731 -7.786698
548 30 9.957389 -20.288952 -13.399598
549 30 15.324176 -20.401012 -6.649484
550 30 13.492917 -24.028508 -7.339583
551 30 11.146863 -21.649102 -5.880630
552 30 8.819111 -21.724254 -13.234145
553 30 9.521856 -21.833079 -0.002648
554 30 14.244176 -18.354996 -4.577886
555 30 15.104163 -17.558169 -5.956514
556 30 15.999766 -19.407396 -4.646359
557 30 13.567295 -20.940076 -4.037691
558 30 3.917812 -20.924937 -10.225614
559 30 2.688438 -21.746121 -9.503723
560 30 6.013110 -21.554398 -7.594795
561 30 7.285409 -24.839760 -5.883528
562 30 4.941950 -23.382654 -5.794454
563 30 2.822038 -24.499840 -8.685635
564 30 13.749636 -22.319396 -10.593760
565 30 8.279273 -17.773484 -9.351735
566 30 10.146843 -22.685164 -8.545069
567 30 7.703477 -23.641640 -6.784259
568 30 7.037598 -18.055085 -12.546251
569 30 8.018427 -19.887205 -7.799335
570 30 15.314936 -21.929092 -5.425390
571 30 7.895103 -23.819317 -1.392382
572 30 4.647561 -21.287993 -1.976847
573 30 6.002015 -22.413951 0.376709
574 30 7.865756 -22.342382 -0.774576
575 30 6.666649 -23.732143 -2.509364
576 30 5.427872 -21.353103 -0.592191
577 30 6.798052 -25.125594 -1.997639
578 30 5.447682 -25.072109 -1.835742
579 30 5.508103 -22.572578 -2.436120
580 30 4.016636 -22.651847 -1.808441
581 30 5.519152 -24.269461 -0.486659
582 30 7.088277 -24.880380 -0.530499
583 30 6.731483 -23.701749 0.397856
584 30 4.762291 -22.901058 -0.514830
585 30 8.192985 -23.579394 0.243446
586 30 6.884325 -20.980597 -0.462712
587 30 4.531447 -24.022607 -1.816635
588 30 5.981070 -20.775963 -2.031915
589 30 10.182982 -20.079066 -6.362886
590 30 7.502440 -21.973091 0.639949
591 30 1.908275 -23.080994 -6.757162
592 30 8.139613 -25.572145 -3.994071
593 30 6.092233 -17.417290 -7.922640
594 30 13.423005 -18.101898 -5.848893
595 30 12.547100 -18.370246 -4.206453
596 30 12.815790 -21.601891 -11.787591
597 30 11.286275 -20.126923 -5.589140
598 30 5.987443 -17.537019 -9.366831
599 30 9.849738 -23.861174 -9.602486
600 30 8.898967 -20.790043 -11.966189
601 30 9.345732 -17.848843 -2.363181
602 30 9.827739 -22.623421 -6.132272
603 30 10.913474 -19.707830 -4.067597
604 30 12.460145 -19.967641 -12.069703
605 30 3.995845 -24.358407 -10.268011
606 30 7.264308 -25.959073 -8.207849
607 30 9.669468 -19.194602 -11.789338
608 30 11.031594 -21.242875 -8.403175
609 30 11.444722 -22.835960 -12.108131
610 30 7.296945 -17.169689 -10.523590
611 30 7.574118 -21.373508 -11.802530
612 30 6.613588 -18.983562 -2.849201
613 30 13.133994 -22.225479 -8.672604
614 30 9.454944 -22.600685 -10.464175
615 30 14.182081 -19.787848 -9.739124
616 30 9.768558 -17.761747 -9.306590
617 30 10.166785 -17.163631 -3.952097
618 30 11.521802 -24.215048 -10.798336
619 30 13.380851 -19.360951 -11.062340
620 30 5.277997 -21.312333 -8.921860
621 30 5.429974 -24.786281 -5.942944
622 30 13.210701 -23.263156 -1.381141
623 30 12.776527 -16.001471 -9.669905
624 30 6.874244 -26.228944 -6.690745
625 30 11.677712 -19.822990 -8.454714
626 30 7.440749 -18.792176 -13.771233
627 30 10.819579 -25.049221 -9.552885
628 30 7.120154 -21.952742 -13.026736
629 30 11.109998 -18.400253 -1.327046
630 30 2.491081 -24.751850 -7.058861
631 30 7.084969 -25.355290 -9.593233
632 30 14.249938 -19.182677 -1.933856
633 30 13.924873 -20.760451 -11.212151
634 30 6.221972 -19.226746 -7.647070
635 30 9.015613 -16.300423 -8.921190
636 30 10.501188 -21.198647 -10.966774
637 30 3.533098 -22.301432 -10.792600
638 30 7.826961 -20.790133 -13.813810
639 30 5.786051 -19.108206 -12.650731
640 30 13.010284 -22.601986 -7.150583
641 30 10.824883 -20.222907 -9.704526
642 30 16.120145 -18.952565 -6.020985
643 30 8.840269 -16.720514 -10.387155
644 30 2.792983 -21.233948 -5.858364
645 30 11.142884 -22.464387 -10.584085
646 30 11.559167 -22.669220 -7.813983
647 30 9.863429 -17.454040 -12.434119
648 30 11.418810 -25.965524 -6.224099
649 30 12.320731 -19.348717 -9.864021
650 30 13.845496 -22.053699 -3.175718
651 30 13.251328 -20.322063 -2.141519
652 30 14.416075 -21.182511 -2.083365
653 30 14.172704 -22.423518 -4.726164
654 30 12.995193 -19.609811 -3.349674
655 30 16.028561 -20.662908 -5.507300
656 30 13.238241 -17.289555 -3.566005
657 30 10.016978 -22.892368 -11.841576
658 30 10.107271 -22.737483 -2.855570
659 30 3.296801 -20.424289 -7.224334
660 30 3.979636 -25.570789 -8.591657
661 30 6.183667 -26.027637 -5.154815
662 30 5.321377 -25.521078 -9.552339
663 30 2.271168 -21.357705 -8.090917
664 30 13.662462 -23.810092 -8.770114
665 30 2.892151 -23.329646 -9.708735
666 30 4.741603 -21.973222 -6.413346
667 30 5.639288 -26.212917 -8.107569
668 30 2.405512 -22.497967 -5.080864
669 30 6.452587 -22.996226 -5.388537
670 30 6.707560 -21.935357 -6.356514
671 30 8.761502 -19.646613 -14.063447
672 30 9.787679 -19.031945 -0.466369
673 30 11.550056 -23.488430 -9.299141
674 30 3.664646 -20.578767 -8.801475
675 30 6.935607 -19.897476 -11.927847
676 30 12.638532 -23.062087 -11.228994
677 30 12.812530 -20.943906 -9.989526
678 30 15.190993 -20.226489 -2.664925
679 30 12.962810 -18.386521 -2.462758
680 30 15.549870 -18.966282 -3.224247
681 30 14.028185 -21.024273 -5.587237
682 30 11.608132 -22.672797 -3.509904
683 30 12.957017 -19.634751 -5.225236
684 30 10.010920 -21.235725 -4.778397
685 30 9.116393 -21.381188 -6.627963
686 21 -22.010889 -12.324598 7.688846
687 26 0.374984 2.168687 -14.687953
688 26 -5.674489 0.989447 -2.476490
689 26 -1.759930 3.757241 1.014738
690 26 3.468947 7.252879 -6.696928
691 26 6.709095 8.903016 -9.962777
692 26 5.252272 8.037442 -6.994125
693 26 -0.898441 -4.797950 8.912411
694 26 5.702973 -7.214244 3.886320
695 26 1.345630 0.331893 8.176070
696 26 -5.860776 6.923831 5.455087
697 26 3.092579 1.483478 2.606623
698 26 -7.024936 -0.775919 9.351399
699 26 2.012842 1.894738 1.551565
700 26 3.528648 -3.100822 5.639389
701 26 -4.350542 1.870377 -5.600796
702 26 6.294254 1.532471 2.653575
703 26 6.623800 4.866536 1.607001
704 26 1.853205 8.787729 5.204642
705 26 0.585469 2.673952 4.390910
706 26 2.588653 7.660837 0.947343
707 26 8.763706 3.651257 -2.838360
708 26 -1.575607 3.982362 12.926282
709 26 0.419007 10.701267 4.330688
710 26 -4.918508 3.940169 5.806274
711 26 2.772193 4.619630 3.751901
712 26 -1.876071 1.559151 5.660807
713 26 0.868500 1.324843 4.278924
714 26 -4.477478 8.078604 2.764458
715 26 3.067565 12.286074 6.933773
716 26 0.817081 7.085450 1.300347
717 26 7.009853 -5.063582 2.321984
718 26 1.312637 13.323164 2.407128
719 26 3.026270 6.134590 14.565607
720 26 7.258874 2.610842 8.920506
721 26 -6.550398 1.996747 -4.141411
722 26 0.309804 5.491257 2.537181
723 26 4.141114 3.918548 -7.477491
724 26 8.089181 0.254463 5.705762
725 26 0.289920 2.135221 2.495585
726 26 -5.998408 4.199778 9.545380
727 26 9.054081 4.238964 0.423548
728 26 -1.480284 8.799645 -3.981177
729 26 -0.844581 8.183290 3.298892
730 26 0.378956 -1.722606 9.682762
731 26 4.271738 7.078050 14.161733
732 26 0.878167 4.450813 1.447276
733 26 -4.951809 1.342412 9.665811
734 26 3.017934 3.052246 4.787593
735 26 4.222501 1.961922 3.174500
736 26 2.868439 10.441986 -3.443866
737 26 5.225820 2.211315 5.181637
738 26 5.976533 0.361703 6.979675
739 26 1.984697 4.601391 5.855950
740 26 3.804932 1.828741 7.997321
741 26 -2.224654 -4.844185 6.931051
742 26 -0.832795 2.270170 3.591068
743 26 -2.760384 11.493672 0.368590
744 26 1.425263 2.855810 0.766975
745 26 0.657499 -4.245584 -3.700998
746 26 -1.658125 0.223639 -6.887882
747 26 -0.103315 -1.278576 -6.215870
748 26 3.234988 3.255469 3.018406
749 26 0.742574 3.136753 10.645007
750 26 2.085129 6.037291 13.191977
751 26 0.788918 5.936695 -2.785068
752 26 4.181431 6.229441 -0.994452
753 26 6.507500 12.753818 -5.245837
754 26 4.203294 8.307503 13.082582
755 26 1.507507 7.365817 13.546832
756 26 1.239421 8.395209 14.644124
757 26 11.445407 8.589138 5.155395
758 26 10.292635 4.375357 5.720870
759 26 -2.993362 2.217952 -8.094900
760 26 1.779979 5.510521 2.764694
761 26 1.834039 7.092865 4.156945
762 26 5.351232 9.925675 7.134326
763 26 2.923646 12.057161 -0.299781
764 26 3.255203 1.512933 4.383810
765 26 -3.576432 2.803213 3.762424
766 26 0.811726 3.013897 5.799479
767 26 1.520964 -2.812582 5.201611
768 26 3.085415 13.357802 4.292311
769 26 8.346215 7.179022 7.283699
770 26 5.831771 3.155713 2.599618
771 26 2.050286 10.218784 1.916655
772 26 -6.754650 -5.638833 4.726419
773 26 -0.313340 4.161741 2.703828
774 26 4.642904 0.300703 10.924045
775 26 -1.544037 -4.032441 4.253046
776 26 1.348573 2.017712 -8.543594
777 26 6.368815 9.882558 10.240666
778 26 -3.274780 -4.772496 -5.900157
779 26 7.859819 10.123409 9.722410
780 26 -0.023024 7.005397 -2.645311
781 26 2.845915 7.533370 13.174782
782 26 2.124805 9.424395 13.737014
783 26 9.416558 -1.450844 3.584338
784 26 2.212429 3.295704 6.012016
785 26 -0.549580 3.773763 4.253434
786 26 0.270294 4.453756 5.436947
787 26 1.805322 7.475167 -5.976652
788 26 9.330541 5.479157 4.091809
789 26 3.787753 6.819264 12.642218
790 26 0.391966 -5.820972 4.809404
791 26 0.951659 9.231575 -1.468577
792 26 2.552349 4.066994 1.357214
793 26 1.177334 0.961667 2.684723
794 26 6.090601 4.341524 -7.118493
795 26 4.117710 4.240891 2.068962
796 26 0.665535 -3.167209 -7.234817
797 26 2.306031 -0.622043 -8.638054
798 26 7.498951 9.746293 5.922691
799 26 2.027567 1.709427 5.255622
800 26 3.118856 6.692678 -1.889242
801 26 -5.749010 -4.155923 8.446139
802 26 7.323074 8.190110 4.303476
803 26 -4.628001 -3.874548 5.969464
804 26 3.624709 8.268436 -3.901553
805 26 -2.714704 4.878604 3.898868
806 26 2.391632 0.227409 2.158146
807 26 8.825430 3.702681 7.231297
808 26 1.398948 5.670183 14.684087
809 26 5.432281 9.486787 12.180288
810 26 0.594466 6.808525 14.914212
811 26 2.411868 7.627481 -1.058794
812 26 3.071747 9.281986 12.725803
813 26 10.080358 8.482231 4.934305
814 26 -4.147977 -1.220530 7.453010
815 26 2.617346 2.994101 9.275317
816 26 0.682588 4.853323 3.967108
817 26 6.970911 -2.749913 6.555895
818 26 3.145444 8.446445 14.353453
819 26 4.372212 1.299272 -8.855684
820 26 3.119148 10.477834 9.136467
821 26 2.200735 0.119270 4.094745
822 26 1.603114 5.489096 4.901567
823 26 6.492778 -2.473697 3.767336
824 26 4.548732 -0.787657 4.277221
825 26 5.006756 12.058558 5.144049
826 26 3.107288 5.450862 2.021811
827 26 -1.225971 11.109000 2.348653
828 26 6.789019 0.405390 9.566862
829 26 -12.437964 7.964859 -4.624469
830 26 -4.872748 16.529406 -2.164236
831 26 0.852769 1.961576 -6.574157
832 26 -0.222922 -0.768584 -3.440533
833 26 1.350704 1.933096 -2.993218
834 26 -4.356601 3.160305 -7.968955
835 26 -10.640840 14.903438 -2.370703
836 26 -8.061400 15.177984 -5.747629
837 26 -2.458111 5.262284 -9.753392
838 26 4.554865 -1.055576 -11.609818
839 26 0.483729 6.644772 -6.101349
840 26 1.651657 8.982809 -10.534399
841 26 -0.913041 -4.062245 -3.165642
842 26 10.279478 1.612066 3.053392
843 26 3.167317 -2.401306 7.551029
844 26 -4.399911 -2.960800 -9.095217
845 26 -0.154651 3.878986 -4.378391
846 26 2.529728 8.687374 8.857653
847 26 3.666369 7.969506 3.787542
848 26 -6.215530 13.765460 -5.729898
849 26 2.777768 -7.982865 0.084902
850 26 -11.911533 11.818971 6.618846
851 26 -8.452648 2.703223 13.015719
852 26 1.444448 -7.184244 -7.201878
853 26 -3.596008 -2.117452 -9.709606
854 26 -2.246232 -0.193675 4.204802
855 26 12.202121 2.449483 -1.131357
856 26 -5.011990 -2.889075 1.692817
857 26 -8.399905 5.589780 7.093413
858 26 -0.838129 -2.813531 -4.013423
859 26 -1.019287 0.327013 -0.033300
860 26 -1.072974 8.720172 -1.691054
861 26 -7.253483 -7.421013 -7.834988
862 26 -9.328780 -1.843676 -7.031657
863 26 -7.869528 2.666778 -14.323364
864 26 -3.796273 -6.445292 -12.523587
865 26 3.690380 -4.798487 9.485463
866 26 -7.061008 -1.624323 2.676975
867 26 -1.098331 -6.350510 10.762828
868 26 -1.825180 -5.223743 11.200638
869 26 -14.402996 -1.763876 -2.800009
870 26 1.359324 5.781788 10.690969
871 26 3.432364 2.123711 -1.251165
872 26 0.175585 1.841063 -3.705906
873 26 0.404691 3.567953 -0.146511
874 26 -7.335307 8.111074 12.064138
875 26 0.254859 -4.089290 -1.843186
876 26 -7.721221 -2.982805 -10.185950
877 26 -5.981725 1.833313 13.096418
878 26 -2.055632 -6.917107 3.074653
879 26 -2.574492 -8.315682 3.288967
880 26 1.506748 13.969143 -8.457940
881 26 4.871095 -6.557296 0.345075
882 26 -3.701287 -3.388275 -10.469657
883 26 1.888258 -3.422943 2.648038
884 26 -5.493539 -5.411152 -13.557400
885 26 -4.895560 2.306728 6.316444
886 26 -1.250676 3.267492 -12.918131
887 26 3.422272 -1.522824 13.236703
888 26 -12.498248 -1.200822 8.879608
889 26 -11.032412 6.762423 10.748030
890 26 -4.723113 5.282672 -12.353797
891 26 -6.199048 6.555011 14.213769
892 26 3.151816 0.262309 -9.627057
893 26 -2.692898 13.310839 11.161835
894 26 5.575424 -8.256165 0.252758
895 26 8.508293 0.977322 -9.897941
896 26 -0.941577 0.976326 -5.780657
897 26 -1.335328 3.832134 -8.732783
898 26 -1.893735 -1.882545 1.050243
899 26 1.014359 0.917769 -13.816903
900 26 -5.040767 -3.397247 -8.067949
901 26 1.517978 2.072573 -15.456420
902 26 -12.551169 7.883565 7.944717
903 26 -1.972555 7.384787 2.927133
904 26 -1.375748 -2.289729 4.185175
905 26 0.394471 12.170591 10.994606
906 26 -5.344403 -5.622182 4.134065
907 26 -3.223328 1.748934 -3.244626
908 26 -9.451540 -6.670033 6.455280
909 26 -2.928218 8.599814 10.134245
910 26 -3.903536 -9.728665 0.753061
911 26 -8.487321 -2.712640 4.901951
912 26 8.152615 11.430497 -0.085318
913 26 -0.441612 8.960337 7.075105
914 26 -0.540158 -2.624914 -13.538838
915 26 7.358390 -1.155253 -9.283930
916 26 -15.328601 3.385062 1.261299
917 26 -0.263206 14.834412 -2.262407
918 26 -1.474807 5.496306 -8.575689
919 26 0.065642 -2.151491 3.656616
920 26 -2.477727 -1.491882 6.066289
921 26 -7.412817 4.223486 -8.632301
922 26 2.931391 3.052567 -0.604896
923 26 0.351435 10.337108 -8.862290
924 26 -6.554670 -3.745567 12.812359
925 26 -6.651880 -2.773640 5.719635
926 26 1.968163 3.829860 -1.580197
927 26 -0.071382 2.269307 -5.095787
928 26 -13.813839 -6.620602 2.059751
929 26 -0.395337 5.835248 -5.690336
930 26 -3.379696 11.537329 -9.729440
931 26 2.389235 -4.074202 -10.744738
932 26 -12.845630 10.760799 4.955285
933 26 -17.289245 0.753250 3.821270
934 26 -1.993976 -8.196937 -5.322193
935 26 -13.444625 1.390894 -7.215070
936 26 -1.858557 0.637477 -2.484952
937 26 -8.078097 1.622407 -1.929004
938 26 -5.232187 -6.504978 -12.201533
939 26 -9.711170 -0.032453 7.514338
940 26 0.523861 -7.204285 -1.850511
941 26 -10.961723 0.866622 1.074028
942 26 -2.775163 1.129239 -5.831867
943 26 -2.580457 5.569194 -3.739855
944 26 -3.410526 7.777268 2.433522
945 26 -6.219712 3.068875 -4.285853
946 26 -2.165655 8.245381 -11.361928
947 26 -16.820424 2.260340 4.041234
948 26 -7.018297 2.182624 8.454251
949 26 -0.559107 -3.452482 0.819262
950 26 -3.834477 1.192123 -12.642398
951 26 -4.879800 3.331022 -11.283251
952 26 4.112933 -5.257398 3.897385
953 26 -1.511187 12.665919 -3.781849
954 26 -2.280479 16.052313 1.047024
955 26 -1.235042 8.789368 -6.873453
956 26 -7.126772 6.993734 -8.934580
957 26 -10.112477 4.827031 11.820038
958 26 -3.357161 11.744042 6.949564
959 26 -1.492020 5.008421 -2.460793
960 26 3.561394 -6.820113 0.047330
961 26 -9.621304 10.137684 8.486895
962 26 -5.775756 -3.337691 -5.694788
963 26 -0.653086 0.430419 -4.449742
964 26 1.671217 3.350874 2.962382
965 26 2.528310 -4.999764 2.529930
966 26 10.673130 2.310816 -0.670892
967 26 -7.970287 -6.243152 -1.915609
968 26 4.612480 5.544912 -3.142700
969 26 7.123525 3.478191 -0.894691
970 26 -13.879570 9.020007 2.620484
971 26 -9.341923 -4.364584 9.259736
972 26 -7.250618 4.615955 0.030784
973 26 -8.505155 13.442146 -2.361385
974 26 -5.257761 -8.116742 7.003532
975 26 -12.047424 -3.380842 5.846364
976 26 -3.072832 13.644442 -4.017585
977 26 -13.935835 -1.732986 3.127999
978 26 2.845885 0.978032 12.681104
979 26 -4.325600 -1.601220 4.867984
980 26 -4.659165 -7.585626 -5.932699
981 26 1.999301 3.909044 -6.706943
982 26 -5.018489 -6.002491 -6.898401
983 26 -11.070914 3.017495 0.071401
984 26 11.943779 4.525553 2.270495
985 26 2.683575 1.508911 -15.453063
986 26 4.760094 -5.915884 1.800275
987 26 4.724319 -8.245932 1.404538
988 26 -3.310213 3.940289 -7.397749
989 26 2.999436 -8.552369 5.370173
990 26 -7.202607 9.506250 -10.266475
991 26 -6.200237 -0.017589 3.568201
992 26 -2.792444 -0.684336 2.529964
993 26 -2.169972 2.595167 7.049674
994 26 -7.714045 2.829040 -2.331107
995 26 -1.243140 -8.776835 9.241407
996 26 -10.821685 8.987633 4.534699
997 26 -0.936656 4.354317 -1.176565
998 26 -9.837144 -1.556109 8.084024
999 26 -9.407675 5.375573 9.941981
1000 26 -1.667543 -8.882400 -2.093651
1001 26 4.540341 4.956292 -12.535794
1002 26 2.929306 11.468775 -7.588998
1003 26 0.841009 3.824908 -5.395996
1004 26 -0.102800 -1.616246 5.002255
1005 26 -5.191157 8.290424 -2.515571
1006 26 -3.046885 -10.346649 2.818678
1007 26 -3.439265 -5.216189 -11.110605
1008 26 3.918012 -6.877348 1.801974
1009 26 -0.235411 1.418672 -7.570575
1010 26 -1.003719 -0.219511 14.325817
1011 26 -2.592433 15.260689 -7.536803
1012 26 -9.432880 -3.516158 3.499093
1013 26 -16.120381 -2.181342 3.709600
1014 26 -1.269556 13.087208 10.136328
1015 26 2.525112 16.605702 -2.870949
1016 26 -6.599777 10.023796 12.324483
1017 26 8.977904 3.168127 -10.209664
1018 26 -5.154678 -10.809889 -4.919898
1019 26 -8.749049 0.029599 6.448518
1020 26 -4.928075 1.858466 0.673231
1021 26 0.318670 -5.136007 11.816580
1022 26 -7.204222 8.490262 10.510667
1023 26 -12.795925 -7.510916 3.035135
1024 26 0.467038 -5.829140 8.076403
1025 26 3.812310 2.440203 -12.313351
1026 26 0.636926 10.968754 -6.101257
1027 26 7.950528 2.531039 -8.885515
1028 26 2.711303 -0.549754 12.289533
1029 26 -9.497887 3.741719 0.163860
1030 26 -2.444846 4.672290 7.865800
1031 26 0.197558 9.904772 -12.075475
1032 26 -16.989915 2.784250 5.402797
1033 26 -9.940014 7.983291 0.924738
1034 26 -4.615785 5.085685 11.969983
1035 26 -1.645175 12.151828 7.666410
1036 26 -7.074016 4.741517 -4.236895
1037 26 -10.098290 -0.509748 -12.127252
1038 26 -7.527034 0.568887 -13.929441
1039 26 -11.232294 -1.916498 -10.529601
1040 26 -5.794725 -1.133749 -13.020971
1041 26 -11.434398 -3.509130 -9.588898
1042 26 -9.847300 -6.267150 -9.270617
1043 26 -4.634821 -4.920465 -12.697470
1044 26 -8.524632 -0.558787 8.014695
1045 26 6.581661 6.107202 -4.569480
1046 26 -12.636040 -3.603110 7.272144
1047 26 2.796782 12.512735 -9.125669
1048 26 -3.454520 16.499133 -3.131718
1049 26 -7.630985 3.306798 -8.087003
1050 26 -1.680121 15.818841 5.889204
1051 26 2.737915 4.277242 13.720752
1052 26 -2.088786 -2.438295 -4.141198
1053 26 9.926784 6.886975 -4.525656
1054 26 -5.637592 -0.242131 -4.761090
1055 26 5.920203 5.482583 10.360415
1056 26 7.078692 2.776078 -10.164255
1057 26 -9.196068 6.517001 8.281731
1058 26 0.051477 -5.498796 13.196341
1059 26 -6.427819 -9.074544 5.417312
1060 26 1.304884 5.111682 -0.514428
1061 26 -1.046763 17.411620 1.368602
1062 26 0.802114 5.687551 -11.347916
1063 26 -3.721399 2.382693 1.390235
1064 26 2.178979 13.099681 -6.331319
1065 26 -3.252812 -5.071990 0.831650
1066 26 -13.294705 -7.990164 1.722136
1067 26 -11.530751 2.263613 -10.129068
1068 26 -2.879483 3.473253 11.443211
1069 26 -4.175978 -0.777431 -0.055979
1070 26 -4.295565 -6.160875 10.092225
1071 26 2.195717 16.712851 -0.029019
1072 26 -6.290411 0.738206 14.772763
1073 26 -4.487023 16.720099 0.100750
1074 26 -9.611840 13.517019 -7.049139
1075 26 -1.182322 3.428993 -5.995806
1076 26 5.942188 5.474629 5.225323
1077 26 -3.504051 -0.475583 9.576664
1078 26 6.183233 -2.855149 9.629269
1079 26 -6.365131 11.270985 -1.351279
1080 26 -8.547623 1.630598 0.175084
1081 26 1.826628 7.744512 9.665253
1082 26 -0.246267 7.351964 -12.172464
1083 26 -1.046814 2.321532 -8.768394
1084 26 -7.807574 0.584416 -3.586982
1085 26 -0.701838 -7.959426 2.260043
1086 26 -12.311470 2.655716 7.540167
1087 26 1.504537 -5.156210 12.794246
1088 26 -4.009050 5.405740 -4.111596
1089 26 -2.687876 3.428269 3.325966
1090 26 -4.155026 -7.168504 -10.454038
1091 26 -4.145457 7.718672 -8.183759
1092 26 -7.987090 13.738266 3.543490
1093 26 2.633255 5.774752 -10.481936
1094 26 2.867070 -9.018161 -2.085117
1095 26 -3.250607 -3.584080 9.547253
1096 26 0.064388 12.893809 9.150232
1097 26 -0.796382 -4.577928 7.023146
1098 26 -9.386600 4.221326 -11.570930
1099 26 -0.290544 1.187592 0.753509
1100 26 7.429721 -6.715703 4.745718
1101 26 -9.031193 5.184489 3.024441
1102 26 6.474539 -2.382462 -3.764400
1103 26 -0.385283 -9.675782 2.909099
1104 26 -12.632191 -7.364054 0.024524
1105 26 -8.497080 -0.296014 -9.035968
1106 26 -8.014574 0.495774 -11.676861
1107 26 -4.310042 -4.030240 -0.133133
1108 26 -8.963638 1.690169 -6.586801
1109 26 -0.180804 1.390273 -0.945888
1110 26 -0.216701 14.990524 -4.069344
1111 26 -12.709213 6.531566 10.967430
1112 26 -1.139665 14.598170 -0.578445
1113 26 -5.575646 2.617824 -5.185076
1114 26 -2.788447 3.354365 -2.123359
1115 26 -5.045944 3.236407 -2.577527
1116 26 -0.495927 4.509946 -12.850770
1117 26 -0.865574 13.527969 -5.086333
1118 26 4.074011 8.796773 -7.793183
1119 26 -11.800059 5.844629 11.925680
1120 26 -0.878337 -3.184701 -0.592992
1121 26 -16.558263 1.426747 2.294185
1122 26 -0.817079 13.118173 6.924945
1123 26 -14.270844 6.887711 6.968056
1124 26 2.750434 -8.261410 7.723375
1125 26 -13.261973 7.754079 9.254616
1126 26 3.882028 -7.283218 6.751995
1127 26 -13.263974 7.675259 6.607024
1128 26 2.427958 -10.318227 4.124582
1129 26 -13.830440 8.719053 8.427687
1130 26 4.305369 -8.441469 7.509697
1131 26 -14.339364 8.743618 7.063608
1132 26 1.964831 -9.738455 7.084245
1133 26 -15.250649 7.526013 6.542461
1134 26 2.551758 -7.266227 6.089224
1135 26 3.000911 -7.652881 3.981239
1136 26 2.796792 -10.315290 5.653044
1137 26 1.720759 -8.518121 6.340505
1138 26 5.174816 -8.035092 6.289132
1139 26 3.413606 -9.482427 6.876178
1140 26 4.528390 -9.324924 5.782517
1141 26 1.346009 -10.015403 5.663691
1142 26 1.924277 -8.817350 4.299962
1143 26 4.041590 -7.446006 5.096404
1144 26 3.906508 -10.145567 4.438868
1145 26 4.579918 -8.791589 4.370239
1146 26 3.445006 -9.257658 3.389505
1147 26 -5.896908 2.253425 7.898729
1148 26 -7.836017 1.841202 7.522087
1149 26 -6.664573 2.876432 9.328973
1150 26 -6.724778 0.851384 7.772394
1151 26 5.023731 8.059936 -10.139246
1152 26 9.050779 7.578870 -9.377259
1153 26 5.996180 8.923214 -12.277000
1154 26 6.744865 9.899617 -8.211688
1155 26 7.725691 8.686312 -8.380375
1156 26 7.522784 7.492562 -9.311624
1157 26 8.955765 9.229221 -8.985414
1158 26 5.729821 11.393966 -10.027086
1159 26 7.177795 9.273171 -11.377664
1160 26 5.930978 7.707357 -11.523161
1161 26 5.966891 8.451419 -8.876309
1162 26 1.498686 -0.922138 15.337086
1163 26 -0.538106 1.592354 14.175111
1164 26 1.413320 13.416539 11.210002
1165 26 -0.820631 0.321683 15.957526
1166 26 -7.820120 10.750578 12.729692
1167 26 0.181967 -0.156803 12.483341
1168 26 -2.360330 -2.743908 13.448812
1169 26 0.540117 0.463275 15.792634
1170 26 0.548158 0.794838 13.692594
1171 26 1.731381 -0.219474 14.131878
1172 26 -1.016899 -1.085689 12.643062
1173 26 0.244449 -2.350120 13.247266
1174 26 -1.983808 1.369920 14.517072
1175 26 -1.127422 -1.965846 13.808825
1176 26 -2.663606 -2.280626 15.179052
1177 26 -1.527999 -3.175914 14.635809
1178 26 0.113814 -2.132940 15.243468
1179 26 -0.992991 0.647382 12.796683
1180 26 0.452198 2.017043 15.329320
1181 26 1.564329 1.053829 14.912581
1182 26 -2.223097 -0.865879 14.707130
1183 26 -0.077302 -3.266848 14.229301
1184 26 -3.620910 -0.798732 15.424263
1185 26 -0.850756 2.066112 15.767810
1186 26 7.008848 11.243198 -9.228226
1187 26 8.447623 6.729219 -10.479659
1188 26 7.224035 6.584709 -11.455213
1189 26 8.443168 8.603268 -10.393686
1190 26 7.648140 7.876286 -11.528336
1191 26 8.159450 10.399005 -8.396804
1192 26 4.884556 8.932866 -11.395172
1193 26 5.575769 10.275986 -8.863656
1194 26 7.918877 10.145514 -9.955079
1195 26 6.368450 8.960716 -6.759656
1196 26 5.286608 10.455623 -11.309722
1197 26 6.378949 7.168475 -10.156203
1198 26 6.634825 10.484931 -10.769357
1199 26 4.930044 9.641126 -9.973157
1200 26 -1.279451 7.834545 9.998782
1201 26 -0.310353 8.983637 -7.916211
1202 26 -1.335365 3.515494 -2.441215
1203 26 -1.761645 5.925639 12.442666
1204 26 -0.535452 11.707326 12.113980
1205 26 -5.192177 5.316851 0.836734
1206 26 1.439905 -6.711853 8.568657
1207 26 6.285244 6.797581 -2.678104
1208 26 7.698271 9.265721 10.854872
1209 26 11.140056 -1.147819 3.494332
1210 26 10.166355 4.591110 3.583116
1211 26 -6.270503 -2.027828 8.491193
1212 26 4.768435 1.925068 -10.364103
1213 26 3.336193 -5.077796 5.544393
1214 26 1.170414 -1.137212 8.475042
1215 26 -5.258572 3.494592 -6.741013
1216 26 4.096698 0.144394 2.477675
1217 26 -0.564840 6.692521 2.338082
1218 26 -9.828344 -2.583761 -4.036327
1219 26 -9.987270 11.810686 -4.487208
1220 26 3.755428 -2.910228 -5.195802
1221 26 -14.500872 -1.047522 -5.335509
1222 26 10.610643 11.837849 1.869562
1223 26 8.289079 -5.290804 -6.650647
1224 26 -7.942477 -1.843397 -0.704061
1225 26 -9.773905 5.925988 -2.836774
1226 26 -13.775997 1.255557 -2.931348
1227 26 7.746862 11.013551 -3.687358
1228 26 8.730746 -2.325450 -5.650879
1229 26 6.518209 0.600846 -3.658114
1230 26 -13.913452 -4.377732 0.131387
1231 26 8.925796 0.810205 -2.138326
1232 26 11.049774 11.000664 -1.786636
1233 26 2.506484 -2.306328 -5.612149
1234 26 -15.712356 -2.114419 -6.099038
1235 26 7.440338 -4.662257 -4.124511
1236 26 11.343382 10.483935 -0.468287
1237 26 2.861505 -1.776070 -1.426671
1238 26 -6.757746 -10.642241 -1.582468
1239 26 -13.625834 6.988382 -4.032868
1240 26 -5.381695 -8.291661 -2.517494
1241 26 -15.725064 7.044417 -6.541055
1242 26 -5.872289 -5.753793 -4.040162
1243 26 -12.695472 6.403415 -6.457243
1244 26 -10.295167 -7.896204 -2.076399
1245 26 -14.403848 9.797081 -7.096841
1246 26 -6.208125 -6.255417 -5.540192
1247 26 -11.623186 3.760094 -6.825853
1248 26 -9.093038 -2.040192 10.972185
1249 26 0.145034 8.365189 1.873014
1250 26 8.833486 3.727593 -4.536251
1251 26 3.515076 5.803705 3.797457
1252 26 7.611348 -7.279645 2.497408
1253 26 3.533319 8.951916 1.033508
1254 26 2.588262 14.839903 2.328110
1255 26 -3.047637 3.011114 14.386237
1256 26 -6.300212 4.696434 5.333034
1257 26 -3.390162 1.336130 6.753197
1258 26 8.204107 -5.942383 3.413604
1259 26 -7.631397 -3.573504 -5.816403
1260 26 -11.473006 12.312243 -5.878339
1261 26 -17.288173 -1.247649 -0.351511
1262 26 10.306822 0.467596 -1.922445
1263 26 8.156478 12.879778 2.039653
1264 26 6.318917 -1.833976 0.818807
1265 26 -4.305840 -6.302191 -4.295935
1266 26 -12.972816 9.827721 -6.054783
1267 26 -16.258188 -3.815946 -3.671948
1268 26 9.055746 12.354104 3.713677
1269 26 6.956148 -3.372796 -5.019602
1270 26 8.922993 -5.339048 -5.095267
1271 26 -15.896808 -1.181217 -2.671699
1272 26 6.191086 13.679441 -2.659027
1273 26 5.383593 -2.901511 -4.836256
1274 26 6.728789 0.544150 -5.271504
1275 26 -13.865854 0.953715 -1.237402
1276 26 9.983908 -4.646834 -4.095585
1277 26 5.590952 13.768608 -1.089205
1278 26 7.162516 0.219250 -2.078912
1279 26 -10.221048 -7.981250 -0.407714
1280 26 -10.222653 9.800084 -4.162568
1281 26 -6.942113 -3.961787 1.387127
1282 26 -10.892750 10.681493 -5.094547
1283 26 -9.155203 -2.477560 0.130935
1284 26 -15.632884 9.327966 -3.984037
1285 26 7.524446 5.042792 0.442175
1286 26 -8.950690 -4.537508 -6.171790
1287 26 -13.550026 12.393031 -3.278200
1288 26 -8.354528 -4.530578 2.146372
1289 26 -11.756374 11.650429 -1.846722
1290 26 7.601309 1.147966 3.657097
1291 26 3.395707 14.056627 8.678404
1292 26 -1.765127 9.141624 -8.185417
1293 26 -2.548066 9.858528 2.947776
1294 26 9.609856 -0.860413 7.466403
1295 26 8.302061 3.427203 9.200192
1296 26 0.077905 -3.088814 9.991200
1297 26 -7.451253 4.024680 11.902594
1298 26 -2.860409 8.918565 -5.412807
1299 26 10.088542 3.461687 0.125177
1300 26 -11.093981 -6.125976 -5.525033
1301 26 -12.508179 10.197018 -1.969321
1302 26 -13.034858 -3.373789 -2.535842
1303 26 4.243894 -2.552793 -2.245100
1304 26 5.611574 12.872186 2.118325
1305 26 4.813202 -3.322134 -7.958566
1306 26 -8.600758 -10.457137 -2.298799
1307 26 -15.440620 4.674643 -2.999916
1308 26 -12.124023 -2.302498 -5.247236
1309 26 4.055817 -2.682199 -3.611404
1310 26 8.880974 10.820505 -2.062693
1311 26 10.494376 -0.349986 -6.479791
1312 26 -13.900631 -2.503700 -1.651402
1313 26 7.164099 12.356380 -0.857655
1314 26 7.639205 -4.348382 -5.877741
1315 26 4.587261 -4.114978 -2.587790
1316 26 5.092219 -2.799254 0.451741
1317 26 -15.119459 1.703053 -2.313572
1318 26 5.944391 10.587479 1.512334
1319 26 8.945795 -5.972391 -3.137963
1320 26 -7.381276 -4.518631 -2.167044
1321 26 -11.724178 10.675686 -6.378057
1322 26 -6.611954 -2.308535 -3.038799
1323 26 -10.994439 5.768329 -5.470899
1324 26 -10.995793 -5.774388 2.142491
1325 26 -11.969515 9.689304 -8.891273
1326 26 -9.968618 -4.845908 0.182554
1327 26 -10.076542 10.252997 -6.964714
1328 26 -7.243841 -5.206201 -6.053274
1329 26 -13.431760 9.324969 -8.515695
1330 26 5.034148 3.592341 -10.122041
1331 26 -4.557378 10.627268 11.291948
1332 26 -1.997407 6.680160 10.398840
1333 26 4.195929 7.172626 -8.119500
1334 26 -2.098124 6.121215 -0.935676
1335 26 -2.370935 6.062080 0.675768
1336 26 -10.445124 -9.631058 -1.715589
1337 26 -12.813048 11.864714 -6.536466
1338 26 -12.585159 -1.678446 -0.653865
1339 26 7.279325 -6.167414 -5.943511
1340 26 7.325450 10.744300 -1.509980
1341 26 11.088673 -1.392600 -3.516419
1342 26 -6.823578 -7.931871 -5.614924
1343 26 -13.109336 10.585108 -7.578345
1344 26 -13.869984 -2.332820 -5.591625
1345 26 6.980920 -3.379275 0.717555
1346 26 6.257201 11.609755 2.681109
1347 26 4.980452 -0.716719 -7.038447
1348 26 -12.798902 -3.747045 -5.559051
1349 26 9.430554 9.200829 0.172515
1350 26 6.990547 -3.741701 -8.829679
1351 26 6.904066 -7.122526 -3.748757
1352 26 9.218705 -3.964295 -6.668527
1353 26 -12.292369 -1.057293 -4.304768
1354 26 6.277171 11.309850 -3.203402
1355 26 8.778304 -3.764479 -4.935642
1356 26 -6.036512 -6.323471 -0.001227
1357 26 -15.089023 7.358742 -3.151657
1358 26 -8.196913 -2.866624 1.195704
1359 26 -10.477992 6.271849 -8.537954
1360 26 -6.426419 -9.040357 -1.544431
1361 26 -15.602225 10.072443 -2.618764
1362 26 -11.228086 -6.637174 -3.926782
1363 26 -11.885838 5.221677 -7.100864
1364 26 -9.810004 -4.860662 1.877457
1365 26 -9.489321 5.218800 -5.841799
1366 26 -1.971293 1.116850 -0.100743
1367 26 -5.198694 -2.605514 4.215305
1368 26 -5.895949 11.759462 -0.161994
1369 26 -0.034898 -0.844394 0.219527
1370 26 -5.165181 -1.473091 5.911076
1371 26 -6.395127 12.877164 -1.180380
1372 26 3.724274 7.453069 0.021144
1373 26 6.314371 6.004247 -0.848140
1374 26 5.575581 6.578947 0.033908
1375 26 7.444531 12.156153 -7.086204
1376 26 5.660042 14.359637 -4.555026
1377 26 7.344888 14.067123 -5.203273
1378 26 7.856159 11.388544 -5.942338
1379 26 6.256124 11.390459 -5.869290
1380 26 6.420107 14.558766 -6.096375
1381 26 8.205635 12.888257 -5.975508
1382 26 6.882156 13.442511 -7.198516
1383 26 5.425610 13.748785 -7.030694
1384 26 5.064856 13.048745 -5.555966
1385 26 5.007575 14.707491 -5.781055
1386 26 -3.270927 8.968573 6.451298
1387 26 5.737255 12.224880 -6.938501
1388 26 4.791034 10.733855 11.734040
1389 26 -6.242287 0.481714 9.754965
1390 26 -15.700671 -4.544682 0.087247
1391 26 10.512764 -3.975849 -2.534485
1392 26 5.765235 14.899176 0.007923
1393 26 5.895817 -2.108099 -6.796237
1394 26 -5.872764 -5.155332 0.935747
1395 26 -14.392046 6.753136 -8.581822
1396 26 -14.904121 1.285339 -4.178293
1397 26 7.367621 11.683789 1.495415
1398 26 8.111112 -1.095529 -6.461340
1399 26 6.428154 -4.483203 -1.681626
1400 26 -13.176831 -4.247236 -4.042156
1401 26 9.740942 12.993531 2.466087
1402 26 3.538703 -2.070439 -6.855211
1403 26 8.152044 1.490546 -6.275894
1404 26 -13.148123 1.066166 -4.394381
1405 26 8.608263 -0.750565 -8.169537
1406 26 5.228185 12.207404 -0.723007
1407 26 9.448437 0.694271 -6.675284
1408 26 -6.910276 -2.555948 0.258417
1409 26 -9.469398 8.772479 -2.813693
1410 26 -7.611785 -10.301547 0.386263
1411 26 -12.218350 7.003351 -0.607710
1412 26 -8.362869 -7.838720 -2.027423
1413 26 -9.837809 7.404579 -7.549952
1414 26 -5.738921 -6.976309 -3.184848
1415 26 -14.044119 8.825438 -5.291426
1416 26 -10.032041 -8.757601 1.494218
1417 26 -14.221714 5.143155 -8.337161
1418 26 -8.647146 -5.685671 -5.231172
1419 26 -16.634843 6.777698 -3.114985
1420 26 2.640832 11.775523 -5.285286
1421 26 -2.155797 1.603616 3.917524
1422 26 1.839527 5.195252 7.408652
1423 26 1.095754 1.821292 11.813330
1424 26 -1.534505 -2.097352 -7.051511
1425 26 -0.398580 -5.709831 -5.653125
1426 26 5.496896 2.009178 6.637791
1427 26 -7.844663 -8.061767 2.267777
1428 26 -12.976967 3.698304 -4.578868
1429 26 -15.323916 -2.903332 -2.950673
1430 26 5.471238 -3.061418 -1.712021
1431 26 7.118467 13.790797 -0.967798
1432 26 8.136263 -4.096922 -7.899663
1433 26 -4.827515 -9.122298 -1.098825
1434 26 -15.304119 5.828768 -7.396112
1435 26 -16.321747 1.758714 -3.543799
1436 26 3.470062 -0.401666 -1.601715
1437 26 9.048026 12.449961 -3.795865
1438 26 8.073464 -1.356513 -4.423425
1439 26 -14.348587 -1.954514 -7.196900
1440 26 3.800330 -2.255737 -0.304663
1441 26 10.230292 8.011884 -0.237713
1442 26 11.067829 0.216703 -3.301455
1443 26 -17.153180 -2.301098 -1.565635
1444 26 7.840599 1.646938 -1.629865
1445 26 8.609333 7.874646 -0.577162
1446 26 4.950613 -4.587796 -5.373987
1447 26 -9.036097 -3.598543 -3.179410
1448 26 -9.260623 5.915547 -4.416625
1449 26 -7.510429 -5.333704 0.826086
1450 26 -12.747472 12.609729 -4.836785
1451 26 -6.673731 -2.513551 -1.500162
1452 26 -8.700240 9.205426 -4.009276
1453 26 -9.680169 -6.261484 -6.323125
1454 26 -13.089884 4.412368 -7.613994
1455 26 -6.655963 -7.161088 -1.690854
1456 26 -13.597428 7.697019 -0.263856
1457 26 -3.752485 12.315394 -0.911610
1458 26 -5.697672 10.070271 -7.650396
1459 26 -2.080799 -3.199406 8.196451
1460 26 8.798119 8.603541 4.053025
1461 26 -1.650612 0.446755 1.392626
1462 26 -13.333744 2.464138 -10.010634
1463 26 -1.456681 -2.679046 6.567651
1464 26 -7.685476 10.898800 -0.441858
1465 26 -7.201562 7.609176 -13.499066
1466 26 -3.915297 -9.666497 -5.395027
1467 26 -11.756422 7.653224 9.978900
1468 26 -1.516607 16.540926 -2.966084
1469 26 -9.903134 10.405687 -11.161942
1470 26 -8.458128 6.636577 -10.535609
1471 26 -4.212236 11.711744 12.476264
1472 26 -3.357792 11.205730 9.018519
1473 26 -1.978574 11.078626 8.628801
1474 26 11.404558 2.512841 6.678604
1475 26 6.873085 11.428770 10.024672
1476 26 5.205042 9.195682 10.638413
1477 26 8.321562 8.590291 5.404321
1478 26 5.586263 11.611973 10.739084
1479 26 -5.134755 7.252642 7.773608
1480 26 -3.073849 3.265198 -10.150296
1481 26 -1.228598 -5.076562 5.362381
1482 26 4.105407 0.616286 5.449447
1483 26 1.456798 6.884847 2.717982
1484 26 1.952587 1.425418 -11.035704
1485 26 2.147554 14.263308 5.351816
1486 26 2.024462 9.069594 3.880448
1487 26 5.641173 -1.344004 12.068326
1488 26 2.250133 12.978512 -1.246513
1489 26 9.607627 7.111779 8.899516
1490 26 7.116511 11.273187 8.215060
1491 26 2.087739 11.325637 0.684550
1492 26 -14.942992 0.394554 -0.093935
1493 26 2.612392 -3.810640 -4.330970
1494 26 10.193694 12.979508 -0.362181
1495 26 9.446779 -3.190176 -1.650246
1496 26 -9.493166 -4.772872 -4.241086
1497 26 -16.527467 5.394957 -3.961434
1498 26 -13.473193 -0.089754 -0.061220
1499 26 9.279627 8.877190 -1.642210
1500 26 5.710785 -4.657837 -7.917641
1501 26 5.849258 -5.434700 -2.650915
1502 26 9.084135 -2.585233 -7.870597
1503 26 -12.149515 -0.445827 -1.167068
1504 26 5.186173 11.868670 1.002244
1505 26 5.681911 -0.241175 -2.498925
1506 26 -15.220232 -0.329507 -4.037321
1507 26 6.896995 9.889210 -2.850392
1508 26 10.367047 0.848983 -5.262773
1509 26 9.040236 -1.817270 -1.304668
1510 26 -11.521250 -5.874420 -2.452505
1511 26 -12.941960 10.886484 -0.667088
1512 26 -9.847988 -6.529609 -1.783166
1513 26 -9.752026 11.331170 -5.972098
1514 26 -11.552707 -7.371583 -5.080863
1515 26 -13.845862 5.422633 -4.432855
1516 26 -11.204855 -7.167163 0.125435
1517 26 -10.849120 11.683980 -7.183143
1518 26 -10.143609 -6.060559 -0.535034
1519 26 -9.953949 7.141830 -5.778137
1520 26 -10.030069 -6.808339 0.918191
1521 26 -11.890479 8.546230 -6.970869
1522 26 -5.405883 6.707072 11.419786
1523 26 0.481171 7.986190 11.922408
1524 26 1.619626 11.510574 4.148263
1525 26 -0.890416 10.665005 4.775497
1526 26 0.314438 10.145402 3.211085
1527 26 -2.079801 -7.890987 -10.216702
1528 26 -1.924265 9.133484 7.158249
1529 26 -4.330910 3.229565 -0.011435
1530 26 -3.595709 10.116315 7.931624
1531 26 -0.805551 11.414684 9.871070
1532 26 -2.351655 6.444619 7.696015
1533 26 0.844343 9.234116 10.628583
1534 26 8.673450 7.289756 3.961677
1535 26 -0.426967 6.510838 11.610990
1536 26 -3.090653 4.553550 0.888834
1537 26 -2.883484 4.941792 -2.212879
1538 26 -3.877178 5.468312 1.528815
1539 26 -1.647248 2.822525 -1.154123
1540 26 -4.034280 15.902135 7.744156
1541 26 -3.007511 15.643863 4.599849
1542 26 -0.475871 15.758783 4.567896
1543 26 -0.273222 17.171185 6.238887
1544 26 -2.488843 15.677863 8.447388
1545 26 0.453258 16.020363 7.331637
1546 26 -2.474030 17.446419 6.093513
1547 26 1.082008 16.771021 5.992120
1548 26 -2.621987 16.697262 7.418379
1549 26 -1.336849 17.539529 5.378875
1550 26 -3.520092 17.170994 4.939955
1551 26 -2.533831 17.554386 4.090151
1552 26 -2.335415 14.325294 5.765239
1553 26 -1.623158 14.699283 4.499057
1554 26 -0.959582 17.506670 4.087603
1555 26 -0.761486 15.797101 8.208753
1556 26 5.096773 4.501689 -4.636410
1557 26 1.706760 -3.010661 6.770479
1558 26 -8.232859 -6.998863 5.587039
1559 26 5.134819 1.636005 8.499211
1560 26 -1.489971 -6.276188 7.348628
1561 26 -5.132800 9.458238 1.975041
1562 26 -3.496137 6.697879 9.896847
1563 26 -6.059668 9.824915 11.044590
1564 26 0.115903 7.150762 8.906572
1565 26 -5.115648 10.834831 -2.041894
1566 26 10.307130 2.960198 5.794039
1567 26 -2.579516 -0.636894 -9.544139
1568 26 -14.848710 -2.078964 1.085656
1569 26 3.599789 -5.701714 -5.066056
1570 26 11.415549 8.928921 -0.098882
1571 26 -0.572088 14.814677 6.282105
1572 26 10.087360 -0.627563 -0.728933
1573 26 -11.189218 -4.377713 1.288424
1574 26 -11.624094 9.276760 -5.462622
1575 26 -13.303721 -1.447037 0.654115
1576 26 10.824520 -1.925102 -0.922456
1577 26 9.252105 13.513119 -2.537045
1578 26 0.447006 15.499721 5.749561
1579 26 9.339460 -0.675322 -5.563914
1580 26 -14.920145 -0.624358 1.005857
1581 26 7.726236 -2.401827 -0.689132
1582 26 8.417122 12.162280 -2.413209
1583 26 -1.600145 14.905854 7.344796
1584 26 4.962482 -6.566315 -5.408664
1585 26 -12.547857 0.471479 -2.303266
1586 26 4.179761 -6.752114 -4.127533
1587 26 9.599064 8.143503 1.280409
1588 26 -1.847228 16.095198 3.907106
1589 26 7.662673 -0.860720 -1.162325
1590 26 -8.336157 -1.942802 -3.932851
1591 26 -11.462032 10.468247 -0.738241
1592 26 -7.586479 -8.076838 -0.726955
1593 26 -10.941694 6.447976 -6.859711
1594 26 -10.418376 -4.894883 -5.873417
1595 26 -11.149004 4.745033 -2.736482
1596 26 10.285353 -3.551223 3.969993
1597 26 2.557422 8.502078 -8.520333
1598 26 -14.206536 -3.358586 -4.571294
1599 26 8.408051 9.651837 -2.860539
1600 26 7.282374 -0.884939 -3.196795
1601 26 4.790452 -4.492505 -1.115523
1602 26 -7.743403 -3.580568 -0.475632
1603 26 -14.039749 9.386488 -0.522991
1604 26 6.929511 1.980138 -3.034385
1605 26 -16.485827 -0.170623 0.402033
1606 26 6.906002 13.613614 1.186233
1607 26 4.033114 -4.129950 -4.096579
1608 26 -16.349589 -4.022115 -2.153403
1609 26 10.140840 -3.568817 -5.445909
1610 26 6.971709 9.161748 1.525420
1611 26 8.775721 -0.615188 -2.340525
1612 26 -16.558154 -3.652498 -0.780189
1613 26 9.649853 -1.778493 -4.408975
1614 26 9.659097 10.201111 1.580878
1615 26 7.275025 -0.662489 0.482427
1616 26 -11.099343 -7.210592 1.757472
1617 26 -11.447681 7.632282 -5.876743
1618 26 -6.038155 -3.725394 -0.076527
1619 26 -15.228551 6.135129 -4.291481
1620 26 -3.748037 -7.673841 -0.913625
1621 26 -14.215353 4.167156 -3.655822
1622 26 -7.298838 -2.483538 -4.663099
1623 26 -13.435860 6.162923 -0.825620
1624 26 -10.434817 -9.339199 -0.051246
1625 26 -12.968243 10.988547 -3.250054
1626 26 -11.767403 -5.833266 -0.792014
1627 26 -12.248242 5.017401 -4.245440
1628 26 -1.528324 11.206671 13.052995
1629 26 -5.024980 6.169538 9.011303
1630 26 -4.030763 6.441153 0.441858
1631 26 -15.799630 2.014445 1.234052
1632 26 -15.260321 -1.928472 -4.282879
1633 26 10.945246 -0.391061 -4.755528
1634 26 6.466934 12.318856 0.376787
1635 26 -1.150616 16.851282 7.303317
1636 26 3.278085 -3.579202 -6.782925
1637 26 -4.813225 -7.044678 -1.819293
1638 26 -14.517982 4.586192 -6.860102
1639 26 -14.373894 -4.025240 -3.060783
1640 26 6.119328 -3.988602 -6.294468
1641 26 6.107445 9.349188 0.328425
1642 26 -3.363238 15.473199 6.068468
1643 26 9.557590 -3.151516 -3.475765
1644 26 9.953165 1.166898 -3.498989
1645 26 -13.631673 -1.761373 -4.055804
1646 26 7.627607 8.721275 -1.797499
1647 26 0.371806 17.138451 4.628545
1648 26 4.894184 -1.184145 0.178340
1649 26 -16.366954 -1.498368 1.137328
1650 26 5.045146 -6.137378 -1.609309
1651 26 11.040689 8.798692 1.367180
1652 26 -3.896513 16.850604 6.393667
1653 26 7.984526 -2.429544 -8.784963
1654 26 -4.790282 -8.300199 0.153887
1655 26 -10.159065 4.625417 -4.359217
1656 26 -3.496934 -6.874709 -2.969151
1657 26 -8.958915 9.908832 -5.876743
1658 26 -10.113263 -7.878890 -3.678958
1659 26 -12.105719 12.528386 -3.063760
1660 26 -17.300842 0.215250 -1.034611
1661 26 9.265900 -4.725264 -0.311009
1662 26 10.060983 11.258195 3.385623
1663 26 6.635160 -0.537407 -6.441721
1664 26 -5.030983 -7.096538 0.850121
1665 26 -14.405051 4.133824 -5.457045
1666 26 -15.681804 -3.498746 -5.071552
1667 26 10.337745 -3.572113 -0.614090
1668 26 8.096617 13.177989 0.356730
1669 26 5.878518 -6.067858 -6.943883
1670 26 -14.168309 -5.600985 -2.392278
1671 26 6.667027 -3.587056 -2.835884
1672 26 7.299324 10.364846 2.564456
1673 26 4.980769 -1.613602 -5.615734
1674 26 -13.728621 0.174388 -5.150479
1675 26 3.250501 -4.525093 -5.736142
1676 26 8.436719 9.102953 2.086834
1677 26 2.838256 -4.198223 -2.667167
1678 26 -8.450941 -7.984624 -4.254158
1679 26 -16.297163 7.920603 -3.947748
1680 26 -8.775161 -8.832299 0.133524
1681 26 -15.217635 7.969646 -0.511380
1682 26 -3.504835 -6.036227 -1.729405
1683 26 -12.912217 5.719448 -9.264922
1684 26 -7.787347 -9.712201 -1.176850
1685 26 -11.496912 10.450716 -3.376194
1686 26 -7.267511 -8.699985 0.603210
1687 26 -12.477648 11.029047 -4.840570
1688 26 -6.803115 -4.785478 -0.757428
1689 26 -11.440560 3.652457 -4.377311
1690 26 -0.568465 -8.421185 5.637327
1691 26 0.897600 -0.577841 2.581138
1692 26 3.195371 5.012232 0.361036
1693 26 -7.811292 -5.687504 8.798987
1694 26 0.199256 -5.274857 -7.882117
1695 26 -8.083955 -4.246470 -4.695327
1696 26 -15.633284 4.446438 -4.725981
1697 26 8.075792 0.012838 -5.274118
1698 26 -15.002706 -3.845663 -1.361416
1699 26 6.884350 10.639855 0.144646
1700 26 6.858260 0.163393 -7.891541
1701 26 -10.778774 -4.793104 -1.759271
1702 26 -14.045381 10.966963 -6.062347
1703 26 -14.940250 -3.484406 -6.316886
1704 26 8.090647 -4.080238 -1.204250
1705 26 11.310019 10.324698 1.057538
1706 26 2.654617 -1.260892 -2.913281
1707 26 -13.997576 -4.901625 -5.570489
1708 26 6.461241 -0.905882 -4.641590
1709 26 6.975010 15.344150 -0.669830
1710 26 5.014416 0.032541 -1.063587
1711 26 -16.433893 -0.723940 -5.444311
1712 26 5.385905 1.794354 -3.219668
1713 26 9.613209 13.638697 1.052352
1714 26 2.552438 -0.805187 -4.530752
1715 26 -8.888865 -2.764015 -5.220899
1716 26 -9.660293 9.221381 -1.443725
1717 26 -12.096628 -7.147617 -2.908491
1718 26 -14.208818 6.963514 -6.972005
1719 26 -10.144746 -3.721087 -5.035222
1720 26 -15.882581 5.177765 -6.016722
1721 26 -8.176372 -6.652497 -6.353787
1722 26 -13.195809 12.126731 -1.635724
1723 26 -8.838429 -7.742628 1.172588
1724 26 -12.105001 8.326238 -9.444159
1725 26 1.105095 -0.791688 -10.428766
1726 26 -14.513969 -1.261560 -0.563006
1727 26 10.678316 -0.926779 -2.161702
1728 26 8.008032 8.112637 0.890539
1729 26 9.641091 -4.984611 -1.859951
1730 26 -5.949379 -3.036812 -4.502850
1731 26 -10.859292 6.169595 -1.782810
1732 26 -15.598891 -2.225472 -1.402297
1733 26 6.635594 -3.308008 -7.430285
1734 26 5.744945 14.454687 1.857216
1735 26 8.824275 -0.800622 0.136599
1736 26 -13.615949 -3.706912 -6.752414
1737 26 5.884940 -1.067131 -8.250320
1738 26 6.334605 9.579440 -1.292101
1739 26 6.126584 -1.876610 -0.683863
1740 26 -16.990270 1.336280 -2.113863
1741 26 9.624414 -1.132857 -7.356327
1742 26 8.468766 9.899220 -0.780152
1743 26 6.047519 1.975023 -4.655841
1744 26 -8.035001 -6.587963 2.354514
1745 26 -14.374920 5.886986 -5.845491
1746 26 -9.424310 -6.174612 2.505927
1747 26 -8.992603 7.226767 -3.280405
1748 26 -11.794425 -7.145748 -1.469499
1749 26 -11.007938 5.761557 -3.739693
1750 26 -6.790464 -8.418170 -4.184391
1751 26 -14.413186 7.323659 -1.612099
1752 26 -4.232934 -7.925583 -3.853602
1753 26 -15.539624 9.479816 -1.143488
1754 26 -8.348280 -8.075948 -5.806536
1755 26 -12.917400 3.655996 -6.077602
1756 26 -3.280821 8.241397 -13.499788
1757 26 1.677294 5.359529 -2.232194
1758 26 6.793121 -8.202750 3.919434
1759 26 8.191639 12.102358 6.657890
1760 26 -8.110548 -3.212370 -1.942693
1761 26 -13.397011 8.612360 -6.885075
1762 26 -14.788218 -2.830980 -0.164433
1763 26 7.388029 12.705459 -3.417494
1764 26 8.675124 -3.514973 0.332805
1765 26 5.599641 -4.166066 0.334238
1766 26 -6.315004 -7.793654 1.840598
1767 26 -10.282787 8.912711 -5.869480
1768 26 -11.639219 -0.783682 -3.011085
1769 26 8.744962 12.828063 -1.129365
1770 26 7.532024 -2.152194 -2.270916
1771 26 3.227128 -3.426668 -1.379081
1772 26 5.031977 0.158920 -3.968207
1773 26 -13.666695 -0.245987 -3.472382
1774 26 5.423622 12.486847 -2.243694
1775 26 9.979335 -2.438022 -6.635145
1776 26 8.175588 -3.444287 -2.494140
1777 26 -15.479427 -5.180975 -2.512348
1778 26 10.208195 10.033991 -2.570972
1779 26 8.574936 -5.846768 -1.260888
1780 26 -10.467302 -3.076546 -0.160603
1781 26 -8.945396 8.260152 -6.632618
1782 26 -7.485035 -3.572359 -3.391942
1783 26 -11.958431 7.954111 -1.761295
1784 26 -5.607638 -7.415884 -4.586294
1785 26 -14.391480 5.953676 -2.887600
1786 26 -10.749906 -8.623469 -4.662415
1787 26 -13.303266 7.546002 -5.808456
1788 26 -9.927989 -3.332003 1.361705
1789 26 -8.927519 10.684569 -4.544335
1790 26 6.315716 5.209479 -9.771020
1791 26 1.927765 7.445759 -2.912328
1792 26 0.765172 -6.077436 0.325282
1793 26 -5.924139 8.745952 7.948775
1794 26 -2.163244 6.855407 3.955740
1795 26 5.959704 7.430901 -4.130665
1796 26 0.024258 -4.677589 1.292674
1797 26 -4.562222 -11.521492 0.020762
1798 26 -4.313770 -8.570632 -8.305189
1799 26 -8.412781 -7.507600 -9.758362
1800 26 -5.900104 11.298675 8.817503
1801 26 -2.001401 9.607695 8.904287
1802 26 -6.245752 0.436503 -3.623610
1803 26 -0.257561 4.836388 6.771067
1804 26 -4.133417 -4.488908 -2.034929
1805 26 -15.951955 8.328007 -5.269361
1806 26 -15.282665 -0.765714 -6.664222
1807 26 7.320875 8.694863 -0.280809
1808 26 9.045167 1.303166 -4.984590
1809 26 4.463505 0.824334 -2.437876
1810 26 -4.362047 -5.554691 -2.996202
1811 26 -11.397137 12.265759 -4.322708
1812 26 3.995772 -6.140301 -2.592189
1813 26 -17.381589 -0.812814 -2.212845
1814 26 8.302883 13.659287 3.434587
1815 26 3.569070 0.341276 -5.026272
1816 26 -15.975627 -3.283339 1.105114
1817 26 4.143866 1.459363 -4.116309
1818 26 5.401863 13.483455 0.505861
1819 26 8.028336 -2.812956 -3.975995
1820 26 -15.348522 0.466864 -5.502320
1821 26 4.183624 -0.947397 -2.952708
1822 26 9.211252 10.829554 -3.823043
1823 26 4.407242 -4.609599 -7.141332
1824 26 -5.985158 -7.813155 -0.468513
1825 26 -10.912026 8.104946 -8.559366
1826 26 -8.868110 -5.975327 0.841177
1827 26 -15.195577 8.582118 -6.508330
1828 26 -9.437440 -3.738456 -1.194156
1829 26 -16.174136 7.291060 -1.475750
1830 26 -7.403101 -7.079570 0.766074
1831 26 -12.629304 9.574398 -4.288746
1832 26 -9.749222 -7.729132 2.495641
1833 26 -12.877351 5.068912 -5.793717
1834 26 -4.271454 8.002947 8.737348
1835 26 -1.127733 10.514572 7.429120
1836 26 10.647523 3.775794 7.519329
1837 26 -4.985700 5.184832 4.059451
1838 26 -7.468693 -6.907592 -3.534447
1839 26 -12.342189 6.392847 -4.876749
1840 26 -11.824824 0.507424 -3.632372
1841 26 8.069392 -2.088681 0.730802
1842 26 8.429229 14.433907 1.829512
1843 26 4.802446 -3.167904 -6.346011
1844 26 -11.205375 -4.392492 -0.404454
1845 26 -14.761184 7.370358 -5.117111
1846 26 -16.598203 -2.475882 0.075806
1847 26 7.280628 -1.686808 -7.598036
1848 26 10.682138 9.348043 -1.315506
1849 26 7.517465 -4.809467 -0.027405
1850 26 -14.700630 -0.064340 -1.971216
1851 26 8.769718 -4.576431 -3.237409
1852 26 6.886015 13.071858 3.035294
1853 26 4.541242 -1.835132 -7.857919
1854 26 -13.457930 -0.805426 -1.905257
1855 26 10.245038 11.608329 -3.102136
1856 26 3.258215 -0.864829 -6.114910
1857 26 3.937032 -1.312079 -4.573610
1858 26 -9.949574 -7.685235 -5.799684
1859 26 -11.620123 6.684681 -9.474185
1860 26 -5.201033 -4.945239 -0.909724
1861 26 -11.185187 8.686614 -3.882004
1862 26 -8.869864 -8.871547 -2.933580
1863 26 -9.410760 10.432493 -2.929875
1864 26 -9.180712 -9.910469 1.122498
1865 26 -14.160627 8.507593 -3.719966
1866 26 -8.036269 -9.403135 1.885626
1867 26 -11.841514 7.174688 -7.784576
1868 26 3.281862 8.355844 -5.290527
1869 26 4.303129 -3.964694 11.997366
1870 26 0.721705 -0.060106 -0.510411
1871 26 -8.258452 3.446851 -3.606906
1872 26 -10.738406 10.913667 10.160494
1873 26 -2.434345 0.442728 -12.490323
1874 26 -3.252533 -2.095565 2.219520
1875 26 -1.447567 -10.626401 5.016258
1876 26 -12.569513 -9.047296 0.709351
1877 26 6.549220 -7.417978 5.445090
1878 26 -2.891943 4.055353 -13.119973
1879 26 -3.976522 -2.829463 5.077977
1880 26 -1.172338 10.333461 -7.399857
1881 26 1.485090 5.008242 -13.843619
1882 26 1.864950 10.645316 -9.067599
1883 26 -3.202467 15.109977 -3.923510
1884 26 -10.572462 12.059360 4.561078
1885 26 -0.504228 12.284808 -3.170329
1886 26 -14.505442 7.209869 8.418773
1887 26 -4.900408 2.543318 8.972622
1888 26 3.690653 0.030145 14.006081
1889 26 -1.925768 -8.698544 1.429989
1890 26 -2.201263 2.395564 12.312367
1891 26 0.070002 9.175297 5.834667
1892 26 -5.965736 0.342579 13.453416
1893 26 -3.921623 6.007185 -2.160648
1894 26 -6.079625 0.927217 1.415776
1895 26 -12.541573 4.210789 1.445300
1896 26 3.054864 5.201305 -11.788024
1897 26 3.626880 2.703261 -14.092143
1898 26 -2.451528 9.769058 0.182907
1899 26 4.069173 5.710949 -14.123413
1900 26 -4.931247 6.927846 -9.211901
1901 26 -3.819437 7.799593 -3.112228
1902 26 -10.921583 7.327425 1.836793
1903 26 -10.308589 7.831719 5.935718
1904 26 -2.355807 -11.343520 3.512675
1905 26 -5.633134 4.271057 -5.287609
1906 26 -8.262927 9.705580 -11.248973
1907 26 -0.863998 14.439366 -6.840048
1908 26 -4.148680 -9.787138 -6.803003
1909 26 4.341118 8.285097 -0.931035
1910 26 4.477466 6.117161 -4.961436
1911 26 -0.867679 -4.612989 10.194425
1912 26 -1.882205 -7.671810 9.975691
1913 26 -1.183006 -4.582622 -1.157421
1914 26 -17.398703 3.711816 4.453309
1915 26 -17.426795 4.697016 1.928242
1916 26 -3.075036 -7.870691 -11.284661
1917 26 -5.572136 -7.901330 3.985043
1918 26 5.316226 -5.649128 4.209149
1919 26 -6.895341 -9.088536 -8.566507
1920 26 -11.242101 -1.826507 -7.981502
1921 26 -11.494747 -0.645753 -12.425043
1922 26 -12.883514 -2.941687 -9.641703
1923 26 -5.566377 0.220319 -13.231980
1924 26 -9.652631 -6.932087 -10.445990
1925 26 -1.631501 -6.026634 -11.856088
1926 26 -10.488263 -7.994542 7.597439
1927 26 -5.733311 3.742701 -1.080912
1928 26 -5.612091 3.826061 0.501406
1929 26 -9.661974 -7.734187 -8.785130
1930 26 -4.716501 -3.574332 -13.983519
1931 26 -3.777720 7.601602 11.091026
1932 26 -5.632389 -3.449247 -1.716621
1933 26 -8.564180 6.678794 -6.186285
1934 26 -6.654038 -5.675033 -2.757090
1935 26 -9.745024 8.228240 -4.538468
1936 26 -7.851121 -1.692188 -2.374994
1937 26 -16.000892 5.829919 -2.247520
1938 26 -8.861781 -7.123405 -0.521677
1939 26 -13.279338 8.811163 -1.605811
1940 26 -4.519837 -4.285689 -3.775784
1941 26 -14.768002 8.669225 -2.223908
1942 26 -8.230636 -5.468768 -3.515869
1943 26 -14.412341 10.789805 -1.098693
1944 26 -6.168482 -6.411739 1.793096
1945 26 -13.986628 9.943750 -2.613245
1946 26 -11.799781 -5.738975 0.802800
1947 26 -12.173968 5.637546 -1.538599
1948 26 -7.164516 -5.388736 2.364963
1949 26 -10.639837 7.061423 -4.343196
1950 26 5.016964 3.872842 14.026769
1951 26 -0.337558 18.477921 1.789143
1952 26 -6.161511 -6.548209 -8.282638
1953 26 -3.378273 6.580320 -0.768764
1954 26 1.337913 -8.313121 -0.194715
1955 26 -3.432408 9.009622 -2.355585
1956 26 -8.765262 -9.869662 -4.110401
1957 26 -10.576215 11.620338 -3.089254
1958 26 -12.890430 -2.234086 -6.713925
1959 26 6.968587 -5.207347 -7.564171
1960 26 6.430210 14.947464 -2.020075
1961 26 9.493875 -0.276441 -3.852620
1962 26 -6.026646 -8.949569 1.118211
1963 26 -13.886187 4.865720 -1.987462
1964 26 -13.515831 -0.492021 -6.469201
1965 26 4.822556 -5.375197 -3.799683
1966 26 8.727051 10.435804 3.246029
1967 26 6.236594 -0.241076 -0.451562
1968 26 -15.842315 0.959033 -1.135052
1969 26 7.115204 14.597315 2.693515
1970 26 5.719762 -4.024939 -3.840543
1971 26 5.302553 -1.579555 -3.673838
1972 26 -12.363360 -1.858848 -2.338713
1973 26 7.152606 -6.114415 -1.090210
1974 26 9.144516 14.187861 -0.488718
1975 26 2.345011 -2.312193 -4.065041
1976 26 -9.120426 -4.941316 -2.207803
1977 26 -9.423526 5.951934 -7.274495
1978 26 -9.540872 -6.661864 -4.630868
1979 26 -13.964244 11.693295 -4.754941
1980 26 -7.470346 -6.530016 -4.905760
1981 26 -14.482178 11.456238 -2.359062
1982 26 -9.092725 -6.961581 -3.117006
1983 26 -11.563512 5.174588 -8.544502
1984 26 -7.609036 -9.853555 -3.198662
1985 26 -8.321065 8.597178 -5.413466
1986 26 -4.931618 -9.793947 -2.383536
1987 26 -13.071367 7.934896 -8.189687
1988 26 8.101931 0.364364 -7.253012
1989 26 -16.973559 -0.923068 -3.941293
1990 26 6.859835 12.127907 -2.126301
1991 26 10.891147 -2.474205 -2.340781
1992 26 -7.556130 -6.156555 -0.492349
1993 26 -14.892916 6.064651 -1.209622
1994 26 -17.317444 0.395739 -3.294261
1995 26 6.330765 -5.774684 -4.049361
1996 26 8.176321 10.137953 0.940213
1997 26 5.440791 -7.110296 -3.490748
1998 26 -13.086356 -3.021551 -0.546109
1999 26 3.052490 -5.404190 -3.494566
2000 26 7.973955 14.811194 0.358520
2001 26 7.458411 0.714165 -0.408443
2002 26 -16.605194 0.751132 -4.714904
2003 26 6.010894 -5.375521 -0.524299
2004 26 5.533516 10.863768 -1.777094
2005 26 10.837782 -2.875747 -4.122613
2006 26 -7.456053 -9.341656 -5.010484
2007 26 -10.142785 8.889403 -7.499896
2008 26 -9.217317 -9.011661 -1.373418
2009 26 -16.293882 8.508077 -2.407992
2010 26 -5.721673 -5.947986 -1.606974
2011 26 -10.398423 4.767148 -7.184974
2012 26 -9.335547 -1.820419 -2.809922
2013 26 -12.399598 9.017563 -0.390182
2014 26 -8.704805 -4.167333 0.607789
2015 26 -9.543768 7.463350 -1.813896
2016 26 6.516963 10.504560 11.505120
2017 26 -14.368894 4.760112 1.272048
2018 26 -12.502174 -2.634713 -3.780411
2019 26 8.089382 0.392697 -3.713911
2020 26 5.375246 10.765524 -0.250413
2021 26 5.260958 -0.150680 -5.393203
2022 26 -11.589388 -8.571962 -1.579409
2023 26 -14.681824 8.158510 -7.923850
2024 26 3.263284 0.261638 -3.326571
2025 26 -16.626168 -2.261441 -4.651848
2026 26 7.671109 11.728227 3.460633
2027 26 6.120452 1.237296 -1.689469
2028 26 -16.950822 -2.410990 -3.043543
2029 26 6.593471 -3.376835 -0.746471
2030 26 9.317861 12.117934 0.813631
2031 26 5.001767 1.414962 -5.553462
2032 26 -15.815214 0.366417 -2.851254
2033 26 4.468589 -5.831700 -6.544123
2034 26 9.855961 10.625475 0.196812
2035 26 7.940309 -2.927354 -6.763452
2036 26 -10.609260 -4.125697 -3.140011
2037 26 -13.072051 6.133160 -7.854036
2038 26 -10.320244 -3.033243 -2.073028
2039 26 -12.800014 5.814079 -2.839586
2040 26 -5.459295 -3.189648 -3.330750
2041 26 -12.637535 8.789034 -3.029056
2042 26 -11.622195 -8.413765 -3.243320
2043 26 -10.899043 9.047545 -0.676926
2044 26 -4.339787 -6.289483 -0.401064
2045 26 -16.358509 6.543476 -5.177672
2046 26 -9.299599 -9.032554 -5.238115
2047 26 -10.978241 4.206513 -5.648522
2048 26 6.626282 8.738103 11.852826
2049 26 -0.647325 9.391144 10.017821
2050 26 11.839026 4.060946 5.945438
2051 26 3.346818 4.070124 10.065794
2052 26 5.684989 5.966281 -3.777809
2053 26 7.443744 -2.889907 7.892665
2054 26 -11.824860 0.079171 -5.054227
2055 26 5.717165 0.699705 -7.060070
2056 26 10.986094 10.363639 2.569468
2057 26 10.718052 -1.785494 -5.479742
2058 26 -8.603316 -5.014342 -0.785222
2059 26 -14.982905 10.978416 -3.815137
2060 26 -14.071659 -5.575745 -3.992507
2061 26 10.303324 12.520169 -1.840292
2062 26 6.291373 -5.190147 -5.404934
2063 26 8.499940 1.733551 -3.220927
2064 26 -13.646749 -4.408845 -1.479105
2065 26 3.464968 -5.093154 -1.530151
2066 26 8.229852 14.575649 -1.642899
2067 26 6.121451 -1.645222 -2.189873
2068 26 4.049420 -3.830162 -0.101951
2069 26 -14.703673 -4.135304 1.253374
2070 26 7.770006 14.080812 -2.918772
2071 26 7.486578 -5.218730 -2.576398
2072 26 -10.181021 -9.508797 -3.258160
2073 26 -11.135903 9.276887 -2.300439
2074 26 -6.800696 -4.676998 -4.272693
2075 26 -10.780257 7.475204 -0.958219
2076 26 -9.371737 -1.967713 -1.324670
2077 26 -12.696897 4.241057 -2.946938
2078 26 -5.750826 -4.468999 -2.727984
2079 26 -11.947187 6.986371 -3.238162
2080 26 -10.049445 -5.774496 -3.138277
2081 26 -10.687709 7.643815 -2.781446
2082 26 -6.286083 -9.866620 -3.058991
2083 26 -13.163389 7.264874 -9.512599
2084 26 2.197594 7.150087 15.066278
2085 26 4.178954 11.450036 9.530337
2086 26 2.413138 -1.392038 3.796933
2087 26 8.406369 0.504826 10.913486
2088 26 -0.850773 13.005972 2.608501
2089 26 4.233157 -2.278610 3.956879
2090 26 5.256559 12.958069 6.369104
2091 26 9.666586 -2.296488 0.090986
2092 26 -12.271873 -0.976877 -5.901019
2093 26 10.930755 11.887006 0.319482
2094 26 8.955307 0.528688 -0.672027
2095 26 -5.422819 -8.983083 -4.050770
2096 26 -15.208741 9.968546 -5.423304
2097 26 -15.203338 -4.814269 -4.372397
2098 26 7.738171 -6.743940 -2.442101
2099 26 8.867616 11.424454 2.118251
2100 26 6.019534 -2.597336 -8.735517
2101 26 7.596034 1.850400 -4.693007
2102 26 -15.912395 -0.740495 -1.035868
2103 26 10.071933 9.239334 2.587860
2104 26 6.656583 1.605328 -6.283528
2105 26 -13.447577 -2.935728 0.982327
2106 26 6.253640 -6.989820 -2.067216
2107 26 9.696202 11.365905 -0.988938
2108 26 2.375520 -2.757111 -2.626281
2109 26 -7.078057 -8.302676 -2.761658
2110 26 -11.810831 11.100168 -8.096924
2111 26 -11.103758 -5.201202 -4.205195
2112 26 -14.023620 10.059127 -4.361631
2113 26 -5.326024 -4.965345 -5.032432
2114 26 -10.410142 10.635252 -1.822042
2115 26 -6.206251 -9.814940 -0.280173
2116 26 -8.489993 7.158806 -4.721769
2117 26 -8.967833 -10.411484 -0.584222
2118 26 -11.391226 9.705438 -7.626791
2119 26 -3.841247 -8.348724 -2.348018
2120 26 -13.237432 7.305820 -2.429103
2121 26 -6.347425 7.205059 10.525468
2122 26 -1.779306 11.817385 11.017271
2123 26 -17.548381 2.203044 1.230044
2124 26 -11.369001 3.465199 1.647733
2125 26 2.811959 6.523300 -12.313119
2126 26 7.912009 6.028450 5.384914
2127 26 1.459139 5.637514 -7.448696
2128 26 3.428256 1.466863 -13.497964
2129 26 1.173250 -8.758082 -8.577279
2130 26 -0.801110 8.853899 -0.307136
2131 26 4.669200 3.941097 -13.578192
2132 26 -10.875152 14.756670 -4.889354
2133 26 3.199250 7.008993 -10.846558
2134 26 -14.542292 -4.164443 6.729482
2135 26 -13.676561 -4.322716 8.597150
2136 26 2.855606 2.626362 14.363824
2137 26 -5.039539 14.877221 3.898851
2138 26 3.860250 3.449657 13.113145
2139 26 10.186502 0.786401 1.836064
2140 26 12.146023 1.378579 3.313123
2141 26 11.328339 2.045835 4.637260
2142 26 -0.641381 -1.569413 1.617865
2143 26 -1.920105 -2.300589 2.448280
2144 26 1.049708 15.067760 -4.829560
2145 26 -5.367225 4.394055 13.177104
2146 26 -4.199726 4.679511 -8.137300
2147 26 -2.813291 17.115818 -6.830465
2148 26 -4.506676 16.217078 -8.010568
2149 26 9.539746 1.891978 -10.070966
2150 26 -12.284494 0.143151 3.007188
2151 26 -10.312982 9.199701 1.734001
2152 26 -4.889558 3.655430 11.620428
2153 26 1.888487 1.022778 -7.179723
2154 26 -1.156480 4.910030 -6.511298
2155 26 -0.175865 11.263088 8.472366
2156 26 -4.989802 -1.820497 11.052375
2157 26 -6.264958 3.186006 -11.770284
2158 26 10.954690 5.953241 -3.819229
2159 26 -12.983795 3.263058 -11.249734
2160 26 -6.739770 8.548139 6.084939
2161 26 -1.734207 -3.857188 -6.109302
2162 26 7.250913 4.217896 4.445250
2163 26 -16.773299 5.095801 3.264658
2164 26 11.325045 0.271519 2.732383
2165 26 -16.607180 6.029331 1.650432
2166 26 7.841292 6.276347 9.669149
2167 26 7.191538 3.967785 12.110132
2168 26 7.091058 5.780767 12.570446
2169 26 -10.605057 4.342258 3.405853
2170 26 0.396406 0.321844 -8.465374
2171 26 -1.146176 -1.591178 7.968586
2172 26 -0.587739 14.648122 10.138781
2173 26 -5.306259 3.232946 -13.315194
2174 26 -5.838856 -0.932639 -6.176401
2175 26 -1.508498 -8.339590 -7.490585
2176 26 3.576136 3.922415 -1.712492
2177 26 -7.286854 1.549637 -12.239215
2178 26 -4.786811 -4.516801 2.408567
2179 26 -14.049013 -7.565873 0.335542
2180 26 -11.969603 7.735907 4.443220
2181 26 -12.801623 9.144496 5.396057
2182 26 -11.160501 14.239079 -1.183258
2183 26 0.983119 12.241350 -6.612722
2184 26 -2.930351 16.467492 -8.336965
2185 26 -11.190788 1.893445 1.870272
2186 26 3.596011 11.075652 -8.904865
2187 26 4.312478 12.128934 -8.102365
2188 26 0.917641 16.417957 -4.368189
2189 26 1.772054 14.493900 -3.866830
2190 26 0.815251 16.735255 -1.707854
2191 26 -5.467302 4.488396 -14.838901
2192 26 -6.462265 5.476566 -14.273959
2193 26 -3.767141 6.004189 -13.153396
2194 26 -4.636668 6.393760 -14.781123
2195 26 -3.571365 5.548223 -14.759784
2196 26 -6.053354 13.894691 1.317702
2197 26 -6.396659 8.236819 14.611426
2198 26 0.158934 -9.939806 8.970022
2199 26 -4.759171 17.433096 1.551224
2200 26 -12.918885 -1.131546 10.690735
2201 26 -4.007173 -1.615616 -1.371678
2202 26 5.849896 -5.717230 9.251647
2203 26 -8.867352 0.838616 -4.862494
2204 26 -4.491426 9.727579 -10.715415
2205 26 2.461490 15.583085 -7.744215
2206 26 -1.017297 10.535772 -0.474038
2207 26 -7.619992 15.904809 -4.594087
2208 26 6.760939 15.309858 1.176554
2209 26 -7.059923 -0.656777 -14.729459
2210 26 -6.545884 2.011080 -14.750889
2211 26 -4.134428 9.265617 11.983387
2212 26 2.291786 -4.893815 9.975165
2213 26 -15.053874 0.913701 -7.804483
2214 26 -5.304206 5.053576 15.232864
2215 26 0.657851 5.979586 -4.757110
2216 26 2.355263 5.287079 -6.009803
2217 26 -5.564968 -0.449521 0.701774
2218 26 -2.277613 11.440344 -12.799763
2219 26 -5.475295 5.032956 -1.887890
2220 26 -3.951369 5.080183 -0.942237
2221 26 0.724646 -10.092890 3.493328
2222 26 6.030386 4.810897 12.609320
2223 26 0.686735 4.583748 -9.106534
2224 26 0.116290 -7.873295 -9.203606
2225 26 -14.887730 -5.409470 -0.808219
2226 26 8.691550 7.695069 -5.795676
2227 26 10.867643 6.503951 -2.040422
2228 26 -1.590600 9.671513 13.865921
2229 26 -1.810705 4.921742 -0.221499
2230 26 -3.909499 -1.079207 11.849794
2231 26 -3.488777 17.878874 -0.724258
2232 26 -3.055603 -7.075339 -6.925929
2233 26 -9.617768 5.362591 4.775787
2234 26 0.722111 17.353870 -3.123782
2235 26 11.493707 0.626544 4.621680
2236 26 -4.447045 5.690493 -9.771070
2237 26 -9.855257 8.719087 3.993281
2238 26 -8.062287 11.813578 6.220477
2239 26 -7.315949 8.737659 -8.279010
2240 26 10.848581 6.254626 -7.233810
2241 26 7.125346 7.437246 10.199345
2242 26 -6.102566 9.452295 -1.661351
2243 26 12.041178 2.910592 3.676866
2244 26 10.025427 2.315649 1.739336
2245 26 0.005771 -7.715445 9.501409
2246 26 -11.231238 12.405936 2.763169
2247 26 -0.650034 -10.068941 7.461181
2248 26 -5.469805 14.671193 5.425162
2249 26 -7.355218 11.845620 -8.616745
2250 26 -11.915451 13.576802 2.250458
2251 26 -6.213006 14.855140 7.001407
2252 26 11.257926 5.087828 -6.238456
2253 26 -1.725238 3.718202 -15.539479
2254 26 -12.422918 12.140939 7.898350
2255 26 -6.454351 14.162171 2.836855
2256 26 -9.308671 16.285604 3.647050
2257 26 -6.660435 16.923775 4.331952
2258 26 -10.023669 15.017210 5.555746
2259 26 -8.881819 15.944587 5.429470
2260 26 -8.083858 16.876990 2.767168
2261 26 -8.152580 10.529317 3.337864
2262 26 -8.766950 11.978762 1.097938
2263 26 -5.578886 12.018511 4.580743
2264 26 -9.601200 14.432895 -3.255050
2265 26 3.481808 5.195782 -7.014472
2266 26 5.191590 4.090518 6.609472
2267 26 -7.540891 -3.356972 7.031893
2268 26 -6.967453 2.578686 -9.549273
2269 26 7.040002 7.264108 -5.720208
2270 26 5.684094 -0.994426 -11.118916
2271 26 -0.394672 11.813716 -7.010793
2272 26 -11.575830 -1.494893 2.409339
2273 26 -10.429017 0.645533 2.554257
2274 26 -12.853287 0.809964 2.079135
2275 26 -11.448162 -0.847198 3.616134
2276 26 -4.772297 18.264310 -0.079597
2277 26 2.497726 17.179485 -4.490555
2278 26 -3.290726 -2.091602 -2.529895
2279 26 -7.568263 14.157691 -4.826842
2280 26 3.851348 8.655271 6.248729
2281 26 -3.293147 12.522133 5.664942
2282 26 -5.249711 -5.771041 -9.417996
2283 26 -2.805509 -5.492290 -8.790556
2284 26 -3.088716 -4.056920 -8.048618
2285 26 -3.971146 -2.903041 -7.326542
2286 26 -3.846944 -5.204984 -9.410768
2287 26 -4.342766 -4.761957 -7.787627
2288 26 -4.893810 -4.423830 -9.803995
2289 26 -5.159975 -1.928288 -7.897516
2290 26 -15.395522 9.575468 4.315202
2291 26 9.084133 9.159256 -6.146068
2292 26 -4.209608 5.985260 -5.650574
2293 26 -9.072583 10.829277 2.120073
2294 26 -3.341007 9.045579 -8.226206
2295 26 7.059093 1.412188 -12.116441
2296 26 -7.341525 11.147232 2.052143
2297 26 8.287554 3.268767 -11.532369
2298 26 -6.418812 15.325013 0.989954
2299 26 -4.398715 9.656881 -1.238385
2300 26 -7.900065 14.979315 4.659409
2301 26 -8.606280 13.142252 6.983647
2302 26 -8.697091 12.277222 4.121065
2303 26 -14.878615 -1.822467 4.724371
2304 26 -15.212582 -3.683875 4.191156
2305 26 -13.267985 -2.672873 3.923802
2306 26 -13.874760 -4.129408 3.473959
2307 26 -14.400595 -0.585500 3.702968
2308 26 -14.917976 -2.869689 3.215320
2309 26 -15.796768 -0.845927 3.833992
2310 26 7.895002 -2.630097 9.835085
2311 26 -13.966749 10.115842 3.702708
2312 26 -4.110340 10.021747 13.537444
2313 26 -14.475810 8.545870 4.396127
2314 26 -7.578793 -1.892580 6.472927
2315 26 4.221359 2.456710 0.131438
2316 26 1.563525 -0.017106 -13.269767
2317 26 5.962090 4.240668 -12.292681
2318 26 -1.116423 13.631789 -1.763273
2319 26 -8.191200 7.911363 -9.546069
2320 26 -8.893486 9.514002 -12.596283
2321 26 -6.233814 10.169314 -11.406113
2322 26 -6.656029 7.654648 -10.140853
2323 26 -0.580514 -0.044006 -1.527257
2324 26 -5.560714 10.094673 -4.900898
2325 26 -2.656032 -1.908601 7.902533
2326 26 -6.929571 12.126032 -2.367559
2327 26 -8.539061 11.161193 -11.750268
2328 26 -9.010468 7.938020 -12.957869
2329 26 -1.361495 10.350913 11.809637
2330 26 -4.213397 -0.403201 10.796357
2331 26 -0.162724 17.200346 -0.743108
2332 26 -0.867532 -1.594666 -12.143292
2333 26 -2.496732 6.445448 -5.178809
2334 26 -8.916183 1.719593 -13.996064
2335 26 0.212338 6.211685 -12.864182
2336 26 2.046361 18.076852 -0.628456
2337 26 -2.092320 -6.169286 -7.450083
2338 26 2.818241 -9.172920 1.622901
2339 26 1.609302 -9.924331 0.103320
2340 26 -2.476809 -7.519289 1.814764
2341 26 -11.132793 2.416220 8.844344
2342 26 -3.235891 -2.064717 10.824481
2343 26 2.770459 3.253933 -8.282249
2344 26 2.721006 -0.599682 -14.166259
2345 26 -4.952096 12.432056 -5.477271
2346 26 -5.121643 12.868669 -6.870274
2347 26 -7.753897 6.997695 0.410982
2348 26 -14.881468 8.021516 1.874966
2349 26 3.665476 -8.717779 -1.054513
2350 26 2.891910 -10.377318 -2.699604
2351 26 2.301560 -8.189268 -2.791897
2352 26 1.947103 -10.595945 -1.509040
2353 26 -8.923670 0.122124 -7.904060
2354 26 -8.881082 0.992355 -9.541431
2355 26 1.704009 14.538527 -7.239482
2356 26 2.846933 14.650446 -8.996042
2357 26 -2.661278 14.193658 -9.193657
2358 26 -4.992295 9.802926 -0.082569
2359 26 9.861832 3.049143 -8.141811
2360 26 -10.557085 0.641068 -13.298034
2361 26 7.141793 6.551198 -7.137332
2362 26 -4.455677 6.113516 15.415283
2363 26 1.164120 -8.755692 9.567940
2364 26 -3.193108 -9.955987 8.808476
2365 26 -8.366217 12.492380 9.200334
2366 26 -10.364873 9.398892 10.374298
2367 26 3.337069 -4.535287 -9.784433
2368 26 3.072683 14.445343 -6.250937
2369 26 7.113679 -0.429274 6.891916
2370 26 -0.183423 10.275563 13.046380
2371 26 -8.377480 4.875992 -0.970518
2372 26 -7.584964 7.750085 14.095064
2373 26 5.987612 5.166201 3.623858
2374 26 6.539557 5.383696 6.303113
2375 26 -3.113181 -3.695262 0.465979
2376 26 -3.743162 -3.806964 2.071386
2377 26 -13.628107 -5.175919 7.256824
2378 26 -9.346647 -5.752507 10.329541
2379 26 -5.186102 -10.044400 7.515807
2380 26 -5.718090 -7.755033 -9.088718
2381 26 -9.291334 4.093238 2.247802
2382 26 -7.799703 3.903125 3.252790
2383 26 -7.276432 6.110701 3.113818
2384 26 -7.112275 5.759987 -8.536167
2385 26 -8.698130 4.056487 4.705685
2386 26 5.730772 3.871065 11.561835
2387 26 4.524969 6.230292 10.692221
2388 26 3.008793 -8.672726 -6.190787
2389 26 1.113779 3.674734 -3.569312
2390 26 -12.097452 3.523079 -10.043673
2391 26 2.496240 -7.362974 -6.470327
2392 26 -5.225179 10.459330 12.719015
2393 26 -13.173234 2.886346 -0.239025
2394 26 -2.566295 8.498900 12.248904
2395 26 0.396487 13.312506 -8.742107
2396 26 0.410554 14.240289 -10.007971
2397 26 1.989743 13.816082 -10.061133
2398 26 1.473746 6.381952 -14.125174
2399 26 3.463227 17.188890 1.891735
2400 26 3.034177 10.912747 -11.862361
2401 26 -1.358717 -0.481054 -5.636377
2402 26 -10.969608 -8.143224 5.702727
2403 26 -10.651197 -6.045821 6.313937
2404 26 -0.195544 15.497027 -7.602339
2405 26 -2.399437 1.929358 8.605066
2406 26 -1.194992 3.192299 8.903099
2407 26 -11.442495 -1.859088 11.091817
2408 26 -14.622472 1.682452 -8.956929
2409 26 -0.571845 7.482362 7.561725
2410 26 -2.700460 9.838065 12.598946
2411 26 -11.938232 -0.604197 11.533908
2412 26 -15.307401 2.097656 -6.589004
2413 26 -13.188710 1.926691 -8.226570
2414 26 7.939427 -6.240120 -4.413043
2415 26 9.221025 -1.797242 -2.923443
2416 26 7.155676 6.750585 6.656182
2417 26 -5.408504 -7.115135 9.673475
2418 26 -4.685455 1.876392 -14.345191
2419 26 0.179441 -8.758238 8.113547
2420 26 -1.022146 -8.354323 -3.112167
2421 26 -8.170814 13.842663 -3.352590
2422 26 -13.515185 -2.245168 9.941154
2423 26 -1.240117 1.671773 -10.357814
2424 26 4.683462 -1.452136 -1.375173
2425 26 6.158912 3.824100 5.173912
2426 26 -6.769897 8.176863 -2.789098
2427 26 -0.038112 -10.753082 4.707993
2428 26 5.966622 7.442055 7.114312
2429 26 -14.900438 -0.010814 9.001585
2430 26 -15.130886 2.491393 -7.892550
2431 26 6.129349 5.458872 7.593758
2432 26 1.627948 -7.384868 -8.651542
2433 26 4.700577 4.544645 5.249774
2434 26 -1.958957 4.526243 -12.061894
2435 26 0.610625 12.391725 -12.314423
2436 26 -7.489381 14.363844 7.644317
2437 26 8.635579 5.336574 10.211014
2438 26 -10.647218 1.720740 -1.053465
2439 26 -10.846501 6.053112 4.139562
2440 26 6.028190 6.132150 -6.168414
2441 26 -10.146282 5.668626 2.044742
2442 26 -1.821291 4.849253 -13.882135
2443 26 5.699115 -8.642683 2.925156
2444 26 1.373545 9.794635 -12.991561
2445 26 10.133880 7.828028 -7.136381
2446 26 -1.420083 14.850498 -3.203425
2447 26 -3.478561 -4.054630 -12.568360
2448 26 -5.909329 -4.540138 -8.173652
2449 26 3.232945 17.681058 -2.728967
2450 26 -6.591318 12.909576 -4.404991
2451 26 4.842307 8.251299 4.408029
2452 26 -0.027464 3.045958 -12.292520
2453 26 10.060246 5.475239 -2.886400
2454 26 -6.931943 5.873263 0.997139
2455 26 -1.477752 -5.154901 -4.309211
2456 26 1.946936 -9.011092 -7.165409
2457 26 1.276183 15.281665 -9.091071
2458 26 4.350047 -3.604789 10.574952
2459 26 -5.183515 7.368143 15.233001
2460 26 -2.342923 -6.189689 -5.972834
2461 26 -7.514930 1.081050 4.795394
2462 26 -8.732907 5.700706 0.272964
2463 26 -0.738902 1.646061 -12.759286
2464 26 -6.135407 16.058053 5.505548
2465 26 -1.195539 2.397299 -14.361761
2466 26 1.916238 9.597816 6.398621
2467 26 3.532426 4.497751 -14.317033
2468 26 -2.911330 12.645872 -11.009312
2469 26 2.650872 -3.271164 -11.967045
2470 26 1.379199 -3.039423 -13.783473
2471 26 0.009159 -3.966502 -14.341923
2472 26 1.292252 -5.033522 -11.164552
2473 26 -2.238261 -1.786949 -12.750430
2474 26 0.230651 -1.108771 -13.664606
2475 26 -2.326607 11.873734 -9.044034
2476 26 5.077150 -3.227224 -11.610375
2477 26 -3.911723 12.723591 -9.311858
2478 26 -0.612204 -2.540025 -15.075776
2479 26 1.020174 -2.120338 -14.641439
2480 26 5.033046 -4.500545 -11.011959
2481 26 -1.235843 -1.127276 -13.845951
2482 26 -1.922064 -3.178060 -12.956425
2483 26 2.654582 -6.613746 -10.521389
2484 26 -4.023928 13.320504 -10.772812
2485 26 -0.245543 -0.908160 -15.146018
2486 26 0.539300 -2.239283 -12.594024
2487 26 -2.790925 -2.248217 -14.237279
2488 26 2.480738 -5.620647 -9.090299
2489 26 3.940944 -4.486796 -12.191695
2490 26 -9.718462 9.315696 5.757826
2491 26 -1.833452 -3.463313 -14.530478
2492 26 -5.846361 0.736911 4.995828
2493 26 -0.346569 -10.010827 1.528022
2494 26 -11.974313 2.326533 -12.072328
2495 26 -8.730122 -0.046395 -14.195997
2496 26 -6.131668 0.553420 -15.106689
2497 26 11.748721 7.888370 -4.193540
2498 26 2.904421 2.677378 -6.665959
2499 26 -10.878575 11.541092 8.601361
2500 26 -6.593620 8.589614 9.162143
2501 26 -3.290516 6.064148 11.672797
2502 26 -5.314517 12.647526 9.763992
2503 26 -0.130239 9.831892 8.454406
2504 26 -4.819995 9.022189 10.642352
2505 26 -3.634573 5.262471 9.280493
2506 26 -3.853354 0.387852 -0.753776
2507 26 -4.983557 6.929854 12.694440
2508 26 0.220369 7.703233 10.452018
2509 26 4.870761 1.002353 -13.681239
2510 26 -11.548640 -5.101006 4.115325
2511 26 -3.677498 1.953806 -15.118192
2512 26 4.749000 6.475086 7.459098
2513 26 -5.775851 14.656261 -7.029011
2514 26 -13.600429 -3.091864 8.185404
2515 26 -8.037263 -9.261965 6.955974
2516 26 -7.371325 -10.416479 5.930615
2517 26 -8.561324 -9.754836 5.493320
2518 26 8.080891 1.441458 -11.301249
2519 26 3.628434 -5.716644 -11.229569
2520 26 -5.144102 12.949204 2.913027
2521 26 -8.744156 -1.994606 3.183303
2522 26 2.149373 -4.218043 -12.742001
2523 26 1.214470 -6.648051 -10.884423
2524 26 1.502352 -5.201910 -9.903691
2525 26 3.726127 -6.387666 -9.459095
2526 26 3.918226 -3.047538 -12.759872
2527 26 10.428556 7.747092 -3.281230
2528 26 10.467555 9.406653 -5.865240
2529 26 9.910379 5.473696 -4.950972
2530 26 -9.680279 7.021259 9.421519
2531 26 8.790900 8.581441 -4.623172
2532 26 -5.694874 17.889849 -1.813399
2533 26 -5.745122 16.048708 -1.323939
2534 26 -8.062459 5.317152 4.335590
2535 26 -6.933915 17.053093 -1.977330
2536 26 -5.822198 17.399973 -3.196515
2537 26 -7.991618 5.234582 2.220333
2538 26 -11.478980 5.414890 3.126161
2539 26 -9.685424 7.281851 2.860395
2540 26 -8.684248 15.247164 2.645497
2541 26 -5.475268 16.322453 3.716113
2542 26 -8.443940 14.061758 5.805400
2543 26 -11.358429 10.077383 5.706846
2544 26 -0.461288 6.068411 9.854430
2545 26 -8.501701 -1.219587 4.215118
2546 26 0.147903 -0.752098 14.802881
2547 26 -5.397700 13.608894 -3.883413
2548 26 3.175682 -9.857697 0.711874
2549 26 -5.676070 15.279080 -5.663437
2550 26 8.323604 6.470959 -6.731702
2551 26 -7.124261 -5.858649 12.134274
2552 26 -14.922178 4.113621 3.333820
2553 26 -1.461568 6.747697 -13.718057
2554 26 -5.520170 -11.464696 1.031923
2555 26 0.506528 7.108519 -14.185613
2556 26 3.457712 16.957470 -0.944140
2557 26 -2.598407 16.427220 0.000328
2558 26 -0.938547 5.642681 -10.162574
2559 26 -1.621451 8.534567 -14.361037
2560 26 -3.057359 15.612683 1.875971
2561 26 -9.246224 10.996591 4.452249
2562 26 -2.338416 -8.546112 11.125967
2563 26 -8.380104 6.613723 14.003073
2564 26 -7.116734 5.737644 13.379379
2565 26 -1.880586 13.366073 -8.000078
2566 26 -2.700907 14.799777 -5.903974
2567 26 -2.625217 17.250596 -5.306405
2568 26 -3.493164 13.707660 -7.646087
2569 26 -3.903274 15.270081 -6.930738
2570 26 -3.405944 16.126781 -5.592235
2571 26 -4.395562 14.734626 -8.604957
2572 26 -2.354059 13.613431 -6.703322
2573 26 -1.487220 16.722784 -7.432085
2574 26 -1.479923 15.635537 -6.044871
2575 26 -1.938128 15.267596 -9.700703
2576 26 -4.299820 16.928526 -6.462368
2577 26 -1.219249 14.562735 -8.493476
2578 26 1.826210 0.359106 -14.787959
2579 26 -10.760226 1.173593 0.036407
2580 26 -6.572855 14.546363 -8.186277
2581 26 -6.309638 8.913957 -4.168846
2582 26 -4.639111 7.453205 -4.207969
2583 26 -3.711829 10.674723 -2.216057
2584 26 6.819271 0.953604 11.152080
2585 26 -0.034370 -1.576201 -8.938356
2586 26 11.036590 5.799151 3.659023
2587 26 -1.021766 -7.221006 5.434468
2588 26 -3.817086 -6.623730 7.946565
2589 26 -7.907076 -2.462207 9.585726
2590 26 3.032540 8.425067 -2.328804
2591 26 -1.529894 8.491377 -5.238679
2592 26 3.843812 4.683619 -9.686303
2593 26 5.382960 0.282692 -10.009233
2594 26 -3.914424 1.931160 -10.495655
2595 26 0.961857 14.647785 3.358430
2596 26 4.121877 2.708921 10.915620
2597 26 2.238482 11.994194 -3.801935
2598 26 1.234007 -5.730038 -4.811247
2599 26 6.557148 -6.903868 1.529966
2600 26 2.410573 -0.379117 -11.138875
2601 26 6.194163 12.490738 8.074281
2602 26 0.346916 -3.225431 11.576418
2603 26 -5.714774 1.803786 -6.530605
2604 26 10.231282 0.327723 6.852278
2605 26 -5.527005 7.626443 1.988027
2606 26 2.180627 -1.153206 9.761576
2607 26 -7.954833 3.564934 10.232244
2608 26 -3.226953 -0.936149 -7.924274
2609 26 2.601345 12.076064 9.350119
2610 26 6.509811 13.026394 5.277208
2611 26 -8.407348 -8.303938 4.531641
2612 26 -7.496298 7.070395 5.200279
2613 26 -2.955957 11.594287 2.686223
2614 26 -1.042650 12.049849 4.746384
2615 26 9.018124 11.188784 5.800613
2616 26 -0.103554 3.278633 12.185484
2617 26 4.116067 9.709906 -4.310923
2618 26 8.407032 4.770045 -3.324551
2619 26 3.475764 13.924110 0.786080
2620 26 -7.535770 -4.219155 8.803912
2621 26 -4.162681 12.393798 0.652644
2622 26 9.207454 4.790545 8.138221
2623 26 7.807134 -4.323371 7.867089
2624 26 7.363071 -2.920159 4.898171
2625 26 9.368676 4.843249 -0.791131
2626 26 10.574426 -2.452075 5.256563
2627 26 1.747406 -3.421012 -8.445173
2628 26 1.119014 11.053018 -0.983492
2629 26 -4.954593 3.898047 7.323991
2630 26 3.292739 10.821220 1.525327
2631 26 -2.965023 -4.937939 3.760333
2632 26 2.291936 13.017286 7.914074
2633 26 -3.282014 4.289402 14.051033
2634 26 8.161771 4.811823 -9.465061
2635 26 4.368865 3.086062 8.625832
2636 26 3.832797 -3.791856 4.364341
2637 26 5.984772 1.005387 12.468846
2638 26 2.081299 7.222676 -8.281704
2639 26 4.847231 -1.618354 2.950482
2640 26 2.696989 14.841731 4.210254
2641 26 6.891273 2.560435 10.517756
2642 26 -7.246637 3.587221 -5.788020
2643 26 10.347274 7.866845 6.973819
2644 26 -5.459462 -6.228787 6.761046
2645 26 0.448107 0.793234 -10.821569
2646 26 0.331511 -3.542635 5.797312
2647 26 5.586807 -1.057402 7.305365
2648 26 -6.033870 0.003674 11.594627
2649 26 -5.446644 -2.330689 7.489217
2650 26 7.356172 -0.338666 11.675211
2651 26 -0.169005 -2.553507 -6.461398
2652 26 10.399412 6.836534 3.351629
2653 26 -0.030275 -7.465621 3.901134
2654 26 1.859712 8.188844 3.074353
2655 26 -3.243857 -6.165736 6.661151
2656 26 -9.074442 -0.682795 11.382800
2657 26 7.093244 2.219871 6.089058
2658 26 4.739282 7.177778 -2.076778
2659 26 -2.917200 10.745842 -5.257754
2660 26 4.714770 2.772844 -8.336746
2661 26 5.907047 1.347707 -10.781688
2662 26 -2.742938 1.085006 -10.409473
2663 26 -0.080120 14.662800 2.168643
2664 26 1.372224 2.148681 9.654262
2665 26 3.962238 11.264160 -5.363788
2666 26 0.061085 -6.367992 -4.383589
2667 26 8.635053 -6.125388 1.828348
2668 26 3.561517 -1.558582 -9.848164
2669 26 7.611147 0.278681 2.578088
2670 26 5.624281 10.973561 8.520464
2671 26 1.122824 -1.719780 11.176414
2672 26 -6.278142 0.732836 -7.382921
2673 26 -1.899037 9.606831 4.158123
2674 26 9.211160 1.006377 5.941289
2675 26 2.772324 10.741431 4.968969
2676 26 8.483790 5.929735 1.249348
2677 26 -5.022974 9.144287 4.207227
2678 26 0.113034 0.973720 8.635525
2679 26 -6.542699 3.374626 11.032684
2680 26 -1.595113 -0.717613 -7.958314
2681 26 2.784235 11.014186 11.060367
2682 26 4.357974 13.424512 5.353774
2683 26 -7.046215 -6.990815 6.090773
2684 26 -8.134887 7.943843 6.217178
2685 26 -2.001674 13.525088 2.188357
2686 26 0.074309 12.984968 5.003132
2687 26 9.273224 10.445367 7.328806
2688 26 -3.298957 0.672934 5.611859
2689 26 1.725089 3.191539 12.223022
2690 26 3.335299 9.404400 -0.499420
2691 26 -4.538368 2.202688 4.606086
2692 26 4.100729 9.654762 -5.983175
2693 26 11.048252 2.976255 -4.798643
2694 26 3.295359 14.500643 -0.531679
2695 26 -6.293409 -4.335153 9.941938
2696 26 -4.282742 13.657710 -0.519001
2697 26 10.202566 4.196503 9.010285
2698 26 8.932858 -2.845619 7.611857
2699 26 6.761653 -4.214908 4.192109
2700 26 -4.085200 5.786847 3.474686
2701 26 11.542787 4.354163 0.081047
2702 26 10.050427 -2.931409 2.571525
2703 26 -0.648408 -5.055297 -9.055635
2704 26 2.022768 9.975712 -2.013649
2705 26 -6.680085 4.324687 7.277063
2706 26 0.630777 11.107189 0.855683
2707 26 -2.732405 -4.261527 4.997806
2708 26 4.357025 13.308817 7.894611
2709 26 -2.555121 3.979897 15.472263
2710 26 7.391527 4.720178 -8.410166
2711 26 4.997613 1.933407 9.863599
2712 26 3.277097 -3.752916 7.016905
2713 26 4.384231 -0.234769 12.130677
2714 26 0.737023 7.451214 -8.121605
2715 26 4.197888 -1.247020 5.785943
2716 26 3.078140 16.197973 4.234498
2717 26 9.126923 3.022136 10.359850
2718 26 -7.376797 2.188107 -6.257640
2719 26 8.381422 8.300440 8.740026
2720 26 -5.885028 -4.267275 5.400531
2721 26 0.374408 2.235216 -10.116234
2722 26 1.725594 -4.886034 5.655070
2723 26 5.811645 -0.112835 8.449457
2724 26 0.663810 7.555693 -0.015873
2725 26 -7.213821 0.993152 11.233923
2726 26 -5.682251 -0.691060 7.378614
2727 26 7.441629 3.274182 1.895715
2728 26 -3.725451 -11.948877 1.733750
2729 26 -4.154824 0.271201 8.569017
2730 26 -5.501647 -11.849947 -3.253839
2731 26 -0.912566 -0.657160 6.404627
2732 26 0.378717 -0.800168 6.712284
2733 26 -9.175795 14.422359 -1.475967
2734 26 5.791563 2.739115 -0.005798
2735 26 -3.679946 9.574653 9.338883
2736 26 -7.002012 13.086069 6.903708
2737 26 -3.174774 -9.343474 10.129377
2738 26 0.205291 10.624995 11.235730
2739 26 12.613066 5.600968 3.038138
2740 26 1.870216 11.186944 -12.950416
2741 26 9.963620 0.999441 4.202490
2742 26 -11.109064 4.628267 0.483377
2743 26 1.176332 -10.603061 2.106962
2744 26 -3.153497 9.989322 10.908109
2745 26 -5.066174 3.717975 3.391890
2746 26 -9.855262 12.045154 9.974555
2747 26 -9.671195 12.144373 8.554995
2748 26 -3.773066 18.179506 1.230398
2749 26 0.743034 0.546670 -2.906442
2750 26 -5.209300 5.605379 -0.587189
2751 26 1.906937 3.863537 15.115417
2752 26 4.309821 -5.622985 10.966686
2753 26 5.186078 -4.371972 9.352766
2754 26 2.974943 -3.824922 11.100284
2755 26 4.369260 2.546934 14.304650
2756 26 0.366646 -5.948858 10.349294
2757 26 6.802427 4.737631 -5.504011
2758 26 -7.542870 -3.001924 -8.348687
2759 26 6.952905 5.501534 -2.323115
2760 26 3.800222 4.616757 -3.909764
2761 26 -2.144345 9.663043 -1.362051
2762 26 5.368877 9.165821 5.404682
2763 26 2.653033 5.346460 -8.198023
2764 26 0.832288 11.565870 -8.398919
2765 26 0.039943 -11.222928 1.071732
2766 26 -2.536287 17.203275 2.023901
2767 26 -6.563807 0.935437 2.955461
2768 26 -1.915352 10.486747 10.163240
2769 26 0.503173 9.512745 12.057993
2770 26 -12.144682 3.865116 -0.294076
2771 26 -8.357573 6.954937 3.556825
2772 26 6.128874 4.465666 -3.395157
2773 26 0.474008 8.548212 -13.053463
2774 26 0.743591 12.008971 -10.767318
2775 26 -6.015182 5.083619 -12.828457
2776 26 -6.680142 6.380804 15.429694
2777 26 -4.330319 -7.771696 10.410952
2778 26 -2.288556 -9.635567 -4.976551
2779 26 -10.593168 -5.385520 9.809155
2780 26 -5.547947 -8.869253 8.474023
2781 26 -3.998754 -5.679598 11.765522
2782 26 9.229630 6.663234 -2.754884
2783 26 -3.748653 3.104455 12.738763
2784 26 -1.192348 -1.471663 15.734801
2785 26 2.438463 -0.782174 5.345606
2786 26 2.035374 0.724303 0.510067
2787 26 5.317866 0.961332 3.580229
2788 26 1.268879 2.552554 -0.849275
2789 26 2.340829 0.772886 6.503527
2790 26 0.483957 2.774174 7.347135
2791 26 -1.434605 5.268061 2.824430
2792 26 1.119663 6.358720 6.214636
2793 26 -1.531966 4.369382 5.220340
2794 26 2.152968 3.419109 7.561890
2795 26 5.312851 5.100682 1.624710
2796 26 -0.373891 2.021386 5.767500
2797 26 0.174350 5.579508 0.637168
2798 26 0.627584 0.556887 5.544957
2799 26 -0.570720 0.768022 2.821982
2800 26 4.216058 6.422347 1.663357
2801 26 2.727788 -1.338348 1.890917
2802 26 3.634921 2.458096 6.212640
2803 26 4.592032 3.490686 3.436181
2804 26 -0.213968 6.196411 4.758988
2805 26 -0.408828 -1.162133 -4.628621
2806 26 4.459187 6.046365 5.203753
2807 26 -11.268107 -6.887531 7.439516
2808 26 -0.787305 -8.712634 -4.918493
2809 26 -7.481382 -10.332036 4.359570
2810 26 -4.647940 2.756712 -1.426336
2811 26 -7.959242 14.149143 1.947483
2812 26 -8.912510 2.896208 -8.459354
2813 26 4.751067 -9.622358 -1.018745
2814 26 3.340255 8.340313 5.054402
2815 26 4.305363 16.477244 -2.790012
2816 26 -8.035224 14.074612 -7.350693
2817 26 -12.342299 -4.477287 9.343860
2818 26 -3.001281 -10.970909 0.835085
2819 26 2.393966 10.198538 8.029556
2820 26 3.877556 9.356694 8.355355
2821 26 -4.005936 -11.610809 -4.009221
2822 26 0.373811 -7.831639 -6.308675
2823 26 -13.800388 -4.735278 5.488086
2824 26 -12.339165 -5.423452 8.111775
2825 26 -10.815705 13.427793 1.116224
2826 26 8.935867 -0.221710 9.535740
2827 26 0.677600 -1.357950 -7.556118
2828 26 10.904234 6.724009 5.162126
2829 26 0.471559 -6.618770 6.353959
2830 26 -3.289970 -5.001562 8.259134
2831 26 -8.859699 -1.389876 9.645673
2832 26 2.628079 5.894120 -3.304205
2833 26 -1.046265 10.160733 -5.287087
2834 26 4.500871 5.654576 -8.987352
2835 26 3.978177 0.787064 -11.752401
2836 26 -3.771142 1.070730 -9.319424
2837 26 1.055321 14.134538 1.219262
2838 26 1.773510 3.831231 9.745697
2839 26 3.449238 12.792205 -4.379956
2840 26 0.384501 -4.048836 -5.172133
2841 26 6.459279 -6.128637 2.815877
2842 26 2.076495 -1.819350 -9.629330
2843 26 6.331431 9.478182 8.112334
2844 26 -0.651762 -1.499030 10.639801
2845 26 -4.784028 0.859627 -7.715767
2846 26 8.334116 -0.543180 4.661608
2847 26 -6.023002 8.315553 3.430233
2848 26 0.277894 0.124173 9.732250
2849 26 -6.718957 4.946596 10.882959
2850 26 -1.092024 -0.336897 -9.608765
2851 26 3.542400 9.985854 10.463677
2852 26 5.432342 13.849654 4.424794
2853 26 -9.399573 -7.211252 4.668037
2854 26 -7.503172 7.189913 7.191127
2855 26 -0.723623 12.585612 0.966004
2856 26 -0.021727 11.847671 3.415379
2857 26 9.580453 9.901052 5.966054
2858 26 0.837318 3.445530 13.283739
2859 26 5.492822 9.553971 -4.843092
2860 26 11.247497 3.256518 -2.837824
2861 26 3.279420 12.597378 -2.052435
2862 26 -7.001258 -6.909095 9.061566
2863 26 -2.977344 13.892580 -0.013550
2864 26 10.373005 2.630972 8.368131
2865 26 7.924163 -4.895757 6.497814
2866 26 7.736235 -2.257737 3.219028
2867 26 10.948563 4.053912 -1.051431
2868 26 10.352266 -1.275889 2.230215
2869 26 0.379418 -2.931717 -9.723090
2870 26 1.297368 11.095340 -2.635512
2871 26 -5.568081 5.129102 6.587581
2872 26 1.319421 11.696756 1.957016
2873 26 -2.623879 -6.064460 5.167783
2874 26 4.164287 14.625415 7.210144
2875 26 -0.686889 4.630766 14.911593
2876 26 6.644637 3.937057 -9.518785
2877 26 3.655562 1.041888 9.718259
2878 26 3.230354 -5.072764 7.077362
2879 26 4.743438 1.127081 12.809964
2880 26 1.794870 9.508186 -6.857422
2881 26 6.101310 -0.753096 3.852555
2882 26 3.372442 15.434531 5.615032
2883 26 8.120941 1.732499 9.594267
2884 26 -7.946217 1.997751 -4.576394
2885 26 9.816421 6.704322 7.513020
2886 26 -6.444336 -5.351818 7.306039
2887 26 1.725441 2.955804 -10.013753
2888 26 2.257823 -3.926824 4.293131
2889 26 7.175910 1.187741 7.657151
2890 26 -5.811596 1.747897 11.299570
2891 26 -4.215225 -3.046153 7.985506
2892 26 7.926180 -0.932887 10.259095
2893 26 -0.920182 -3.216515 -7.847752
2894 26 9.900773 5.739883 5.443834
2895 26 0.601385 -7.551990 5.252280
2896 26 1.895322 7.481748 5.827330
2897 26 -2.362696 -5.982883 8.507085
2898 26 -8.094437 -0.328018 10.529379
2899 26 6.534165 1.431358 5.071675
2900 26 3.579924 6.864664 -3.413657
2901 26 -1.711742 10.208123 -3.948221
2902 26 3.582485 3.399082 -10.083982
2903 26 5.406643 0.340530 -11.866648
2904 26 -5.036658 1.800360 -9.560283
2905 26 1.548224 16.020470 2.941142
2906 26 2.643120 1.740157 10.815906
2907 26 2.092823 10.545646 -4.936537
2908 26 0.864552 -5.143013 -6.127439
2909 26 9.108375 -5.106809 2.580914
2910 26 1.955416 -1.761332 -11.150748
2911 26 7.897685 1.699622 1.996784
2912 26 6.109699 11.245889 6.824602
2913 26 -1.188878 -2.905949 11.121629
2914 26 -4.880587 0.576507 -6.263848
2915 26 -1.384288 9.284798 2.318259
2916 26 9.651068 -0.714986 5.940211
2917 26 2.047689 10.942769 6.105543
2918 26 8.134809 4.973807 2.102025
2919 26 -4.299069 9.824436 3.044041
2920 26 1.819052 0.142548 9.981269
2921 26 -8.084321 5.098330 10.981543
2922 26 -3.041287 0.368815 -7.596683
2923 26 3.079363 12.308384 10.881508
2924 26 5.619200 14.714145 5.635874
2925 26 -7.127706 -7.602103 4.565402
2926 26 -6.982175 6.214203 6.234928
2927 26 -2.234810 12.565692 3.464019
2928 26 0.592386 11.752855 5.741558
2929 26 7.378495 11.158200 5.601405
2930 26 -2.011885 0.894153 7.206926
2931 26 0.790664 4.334008 11.702492
2932 26 2.082497 9.165731 0.210587
2933 26 -5.716244 2.563759 3.641549
2934 26 2.084378 8.838255 -4.625789
2935 26 9.986141 3.647289 -5.434045
2936 26 3.648002 14.063067 -1.852711
2937 26 -7.206154 -5.717348 10.150280
2938 26 -3.006317 13.039595 1.091979
2939 26 10.652498 5.190402 7.620240
2940 26 8.681074 -3.524888 6.376923
2941 26 8.180728 -3.687018 3.406538
2942 26 -3.590542 4.795147 4.937154
2943 26 10.173168 4.560123 1.312256
2944 26 10.765395 -1.095340 4.814467
2945 26 0.483708 -4.086391 -8.468153
2946 26 0.155156 10.929166 -1.872030
2947 26 -6.781499 3.234527 6.406902
2948 26 3.114374 11.458685 2.946751
2949 26 -2.328197 -6.417984 4.115418
2950 26 2.659936 14.804289 7.576563
2951 26 -2.040297 5.078511 14.758555
2952 26 6.735689 3.236096 -8.001042
2953 26 2.620766 1.511837 8.398453
2954 26 4.902947 -3.652448 6.678567
2955 26 5.456846 -0.439433 13.117265
2956 26 0.938925 8.275003 -6.825716
2957 26 5.775559 -0.975182 5.342239
2958 26 3.985954 14.607004 3.416316
2959 26 8.147023 2.389095 11.307088
2960 26 -7.416164 0.604890 -5.608596
2961 26 9.831719 8.538100 8.242180
2962 26 -6.906971 -4.748108 6.288597
2963 26 1.436132 2.568380 -11.306850
2964 26 1.276112 -4.350339 7.055521
2965 26 6.996118 -1.131472 8.281021
2966 26 0.608400 8.945954 0.850759
2967 26 -4.704784 1.040540 11.158479
2968 26 -4.145683 -1.922479 8.893462
2969 26 7.476603 2.903372 3.354497
2970 26 3.889887 17.480123 0.266460
2971 26 -9.785305 15.056429 -6.770193
2972 26 -1.976192 3.043013 10.530007
2973 26 -4.114905 10.832762 -3.659613
2974 26 -6.753170 10.058912 -2.952799
2975 26 -4.722959 8.922084 -4.939939
2976 26 -5.787342 7.766728 -4.986883
2977 26 -6.215740 7.394075 -1.651587
2978 26 -6.506161 9.211170 -0.103348
2979 26 -6.570794 5.599410 -5.686880
2980 26 -3.665085 1.859525 12.188271
2981 26 -10.434104 5.001124 -12.564055
2982 26 -9.371294 4.219111 -13.273223
2983 26 1.356432 8.169257 -11.727845
2984 26 -1.574456 14.228941 11.629954
2985 26 -15.000183 -2.869431 6.504503
2986 26 -13.331934 -3.075343 5.712486
2987 26 -11.861249 -4.622055 6.689679
2988 26 7.192449 -3.931499 9.858422
2989 26 -3.354463 0.340609 -14.900227
2990 26 -2.285543 1.289158 -15.184146
2991 26 -2.732189 3.551033 -14.752855
2992 26 -2.577040 -0.670999 -1.160298
2993 26 -5.878293 17.405558 0.129054
2994 26 2.147281 17.652796 1.534316
2995 26 -1.029600 -4.626708 -13.343663
2996 26 1.429091 4.743679 -12.024740
2997 26 -15.753553 4.610173 0.280573
2998 26 1.139588 1.338750 -5.074750
2999 26 -7.763200 1.249929 -15.116633
3000 26 11.936910 1.280395 -0.191681
3001 26 -5.903661 -8.042101 10.576071
3002 26 3.662340 -2.366785 9.527459
3003 26 -8.939946 3.300352 -1.941052
3004 26 4.143659 -1.723450 8.389869
3005 26 3.840644 16.604334 -4.564002
3006 26 -4.471942 -0.488888 1.556153
3007 26 -6.690506 16.165163 -6.249827
3008 26 3.994868 9.932451 5.219224
3009 26 -3.888777 8.131544 -6.979216
3010 26 -5.063668 6.040935 -8.110073
3011 26 -4.134837 7.986981 3.995730
3012 26 -5.145066 7.110882 -7.154817
3013 26 -11.229616 8.943546 6.680196
3014 26 -2.531052 8.361223 4.311004
3015 26 -3.204944 6.828623 -8.599523
3016 26 -11.776848 8.021412 5.768690
3017 26 -3.546126 6.917921 4.195067
3018 26 2.464987 5.750423 11.594506
3019 26 -2.214754 1.628466 15.967567
3020 26 -10.994199 4.366173 12.925861
3021 26 -3.483859 4.109800 7.469915
3022 26 11.900512 6.216685 1.770405
3023 26 -2.308092 0.450909 13.406361
3024 26 -11.459884 10.032825 9.349895
3025 26 -8.802943 10.288112 9.626595
3026 26 -8.523607 11.730352 10.391118
3027 26 -9.207598 8.803374 8.590794
3028 26 -8.475270 10.797437 8.085708
3029 26 -6.631307 4.865190 14.906543
3030 26 -1.086249 -7.902499 8.215275
3031 26 -0.980434 -7.943898 11.428494
3032 26 -2.827109 -5.638259 -13.102643
3033 26 -8.742456 1.954574 -12.238094
3034 26 -3.701671 -5.950321 1.739705
3035 26 -11.952356 -8.886128 2.409741
3036 26 -7.273591 8.702710 -1.176652
3037 26 -5.523676 8.126453 -0.321619
3038 26 -3.760578 9.294080 -3.800412
3039 26 -6.631685 14.872568 -3.795288
3040 26 -6.206000 16.403882 -4.814333
3041 26 12.212465 6.372183 -4.187338
3042 26 0.885755 -1.111105 13.340810
3043 26 -5.697172 -0.467897 -0.820295
3044 26 -1.808011 8.171841 13.968305
3045 26 -1.076139 -5.456708 1.997768
3046 26 0.617700 -2.404710 0.120056
3047 26 -10.122610 -4.300678 11.029472
3048 26 -4.017918 -9.472147 6.954858
3049 26 4.664390 4.944214 7.619435
3050 26 6.719523 3.934059 6.985636
3051 26 -3.684718 12.952542 9.881406
3052 26 7.919188 4.788031 -6.925920
3053 26 -2.921060 5.168469 10.590590
3054 26 -1.901058 5.468105 9.292405
3055 26 -4.718463 5.846837 10.427345
3056 26 -7.969648 0.742776 3.403758
3057 26 -3.484431 -1.564485 13.999989
3058 26 -6.901551 -0.360132 5.328627
3059 26 -5.573918 -0.739734 4.263030
3060 26 -3.399298 0.884895 15.364650
3061 26 2.602709 6.815380 10.170695
3062 26 -2.554352 10.466096 6.770683
3063 26 -4.932415 7.695998 10.034713
3064 26 -5.677130 8.314316 11.820736
3065 26 -4.636937 11.389706 7.979100
3066 26 -2.624779 7.387766 8.956004
3067 26 -3.892740 7.833947 12.549666
3068 26 -5.024807 8.768647 13.207399
3069 26 -0.140229 8.088350 -11.094503
3070 26 0.485379 11.087977 -13.512581
3071 26 1.648084 8.883169 -14.219444
3072 26 2.028794 12.074279 -11.582139
3073 26 -0.090773 8.509094 -14.551476
3074 26 -0.269060 11.227877 -11.734557
3075 26 -0.640335 11.385134 -10.199014
3076 26 -0.919996 12.628977 -11.514659
3077 26 2.867789 9.731946 -13.155458
3078 26 1.863582 10.578669 -11.172558
3079 26 0.030559 8.976389 -10.234158
3080 26 0.653840 10.296076 -10.590605
3081 26 -5.843149 11.590216 3.118127
3082 26 -5.832040 11.534899 -8.378977
3083 26 -9.356614 13.279476 2.237092
3084 26 -7.532142 12.829175 1.172830
3085 26 -10.641270 13.103996 6.021370
3086 26 -5.264125 6.366424 -13.622274
3087 26 -3.843498 -0.185471 3.409257
3088 26 -6.952635 11.214059 3.970022
3089 26 -7.203897 15.520506 2.575213
3090 26 -11.739221 13.044017 4.209376
3091 26 -9.107411 13.607826 0.777070
3092 26 -11.143520 14.164108 5.078572
3093 26 -11.560066 14.396901 3.468209
3094 26 -9.272645 14.589523 4.054184
3095 26 -9.320057 2.083451 -3.224005
3096 26 -10.173276 15.930595 2.204392
3097 26 -7.523608 4.287615 -2.525321
3098 26 -10.150140 14.446527 2.560942
3099 26 -6.191194 12.350210 1.761119
3100 26 -4.407358 -7.192507 11.853264
3101 26 -4.850756 13.419868 4.342825
3102 26 -8.440030 15.314883 0.698449
3103 26 -7.040889 12.641072 3.028146
3104 26 -7.385117 14.271851 0.487242
3105 26 11.242623 -2.417893 3.037851
3106 26 -2.147758 8.434688 -0.132535
3107 26 -3.278726 13.338868 -2.785554
3108 26 -1.226553 -9.997689 -1.034086
3109 26 -3.527597 3.278039 -4.684357
3110 26 -7.349021 5.994866 -0.856962
3111 26 -10.082106 -2.282342 5.337155
3112 26 -1.062580 -10.291949 -5.343263
3113 26 5.374416 7.676632 2.708010
3114 26 -0.888500 6.336987 -3.861398
3115 26 -14.285205 -1.769482 8.362626
3116 26 -11.113196 -3.519705 4.077795
3117 26 -1.243104 17.143602 -5.945510
3118 26 -6.059380 -0.498240 -10.968160
3119 26 4.502045 6.761677 -13.345473
3120 26 -14.116257 -0.952607 9.445393
3121 26 -13.777565 0.166252 -8.523965
3122 26 -4.730987 13.938199 -5.414668
3123 26 11.898256 7.271827 -2.638964
3124 26 0.520528 -6.824575 11.552464
3125 26 -7.825974 4.452425 -11.412855
3126 26 -8.013563 4.207227 -10.225080
3127 26 -3.096042 8.573357 8.055332
3128 26 -0.459116 -10.031745 -3.412266
3129 26 -4.144594 12.595677 8.588171
3130 26 -6.703797 13.245092 -7.116358
3131 26 1.937900 5.375719 9.470381
3132 26 -1.670455 9.180213 11.135166
3133 26 -13.956162 11.757923 4.923458
3134 26 -4.761250 10.771561 9.735000
3135 26 -5.371230 -9.496593 -7.028363
3136 26 -2.054688 6.767543 -11.546797
3137 26 3.919635 13.741470 -8.368818
3138 26 -3.070556 7.509076 -12.316881
3139 26 4.011015 13.087435 -9.935933
3140 26 -10.287595 -0.226098 3.285018
3141 26 -8.917531 0.840209 -1.571316
3142 26 -6.488339 4.377545 -10.067715
3143 26 -0.027923 16.491651 -6.671545
3144 26 -10.112447 11.421791 3.098735
3145 26 -2.911618 -0.558623 0.442396
3146 26 -3.367325 2.166577 -1.337591
3147 26 -11.991622 -2.344937 10.041936
3148 26 11.900768 5.389924 -2.773154
3149 26 4.644412 -5.369605 8.296230
3150 26 5.428601 -4.789035 10.807319
3151 26 3.936733 -6.790494 10.080939
3152 26 -3.203988 -6.212364 10.615793
3153 26 3.145090 -5.044561 11.828114
3154 26 -0.081063 9.718053 -2.862853
3155 26 4.536426 4.059687 0.038678
3156 26 4.796218 10.345111 4.153340
3157 26 3.006866 -7.931523 -7.921123
3158 26 3.483044 3.895958 15.104731
3159 26 2.211950 3.768875 -4.751902
3160 26 3.812723 -3.373061 -10.663049
3161 26 -8.809005 -4.063414 5.807232
3162 26 12.675643 5.080583 1.125223
3163 26 -1.120342 16.094002 -8.683504
3164 26 -4.329561 1.549766 2.467582
3165 26 -8.716916 12.590975 -1.300682
3166 26 -2.678522 2.934209 -5.989249
3167 26 0.379560 14.066732 -0.986385
3168 26 -8.523082 0.301147 1.135420
3169 26 -10.005027 14.442836 -5.669970
3170 26 11.724906 4.832797 -4.696716
3171 26 -2.968611 11.112014 13.256654
3172 26 -7.504992 -0.427922 3.836441
3173 26 0.424745 -9.072602 -7.344723
3174 26 3.856229 5.601958 6.547286
3175 26 4.133126 8.329604 2.439760
3176 26 -3.565338 -0.405435 -5.873837
3177 26 -7.860435 13.253374 -5.899264
3178 26 -0.967707 10.370321 -13.200025
3179 26 0.205833 12.641460 -4.751009
3180 26 -0.915855 15.950729 -0.742528
3181 26 1.060057 -3.060712 1.485529
3182 26 -0.705069 -0.518306 4.953117
3183 26 -2.484307 12.593723 -4.931380
3184 26 -7.140089 1.757671 14.016485
3185 26 1.514178 14.300997 -2.551321
3186 26 0.786204 -1.883801 6.244380
3187 26 0.481802 -4.498631 2.639922
3188 26 -5.163590 2.278363 -12.242307
3189 26 -3.185013 14.718789 7.301573
3190 26 -9.402891 3.378305 3.718962
3191 26 -12.290470 6.639861 1.998692
3192 26 -11.858180 8.127358 1.586271
3193 26 -4.695556 8.696208 7.039251
3194 26 5.636468 9.107556 3.634557
3195 26 4.716802 -6.623379 8.907084
3196 26 2.986804 -6.095083 9.070791
3197 26 2.760310 -6.232525 10.810189
3198 26 -3.378479 -11.195418 4.839908
3199 26 -1.780158 -11.572099 0.600141
3200 26 -4.734350 -11.459224 2.738969
3201 26 -0.905697 8.119333 11.573972
3202 26 -16.940375 2.686799 -0.061162
3203 26 -0.834667 7.159558 13.030732
3204 26 -8.445525 1.792111 1.930899
3205 26 -1.447725 17.166337 -1.658412
3206 26 0.310943 13.639025 -2.823707
3207 26 -0.741807 8.771759 13.017558
3208 26 -1.493147 -10.324164 8.872058
3209 26 -1.684746 -1.791764 -1.371128
3210 26 -9.479819 2.081403 0.955134
3211 26 -1.687652 -3.861980 -4.698524
3212 26 -6.389580 3.106854 13.870364
3213 26 -1.464372 -5.457447 -0.208642
3214 26 11.492962 6.501768 -5.552201
3215 26 -9.793068 14.095779 6.864399
3216 26 -12.079044 2.484996 -1.245992
3217 26 -12.670924 2.534663 1.075740
3218 26 -1.150606 -9.794988 -6.864214
3219 26 -2.529754 -10.262946 -6.569278
3220 26 -0.994583 6.773573 -9.199075
3221 26 -2.746824 -3.788488 -9.532065
3222 26 -11.462041 -5.809639 -8.345991
3223 26 -15.383508 5.399913 3.258328
3224 26 -15.324826 2.156576 3.041324
3225 26 -15.318692 3.203430 -0.201584
3226 26 -5.596886 10.998121 -3.549661
3227 26 -7.986874 5.376913 14.544710
3228 26 -3.633186 7.398188 6.919468
3229 26 -2.209476 7.243013 11.808703
3230 26 -3.460806 6.341009 13.086533
3231 26 5.890438 5.873624 -13.128748
3232 26 9.702777 3.829946 -9.275279
3233 26 9.878287 1.798974 -8.744153
3234 26 3.342655 7.058908 9.169381
3235 26 -10.684221 7.872775 11.834937
3236 26 -8.478321 -4.937902 12.449848
3237 26 -10.242441 -3.564330 9.899632
3238 26 -9.818056 -4.651222 -11.137917
3239 26 -4.795590 -9.332997 5.965841
3240 26 -9.962130 -3.627925 6.331989
3241 26 10.799208 8.943461 -4.414682
3242 26 -4.598353 -5.384925 5.687669
3243 26 3.673915 8.244592 9.369843
3244 26 -9.591282 6.682809 4.272303
3245 26 -2.748147 -2.064229 -5.478325
3246 26 -7.674847 12.840693 5.021955
3247 26 0.229808 3.180774 -13.763297
3248 26 -1.295413 -7.947449 0.574689
3249 26 -4.440048 3.969475 1.463084
3250 26 -6.476166 2.490841 1.516796
3251 26 -9.413412 10.345722 -9.829381
3252 26 -3.709543 3.650593 -3.080169
3253 26 -6.005022 1.648460 -0.557621
3254 26 -2.162237 2.723358 -11.990658
3255 26 -1.148959 8.558665 -12.912084
3256 26 2.514921 -7.579680 1.458086
3257 26 -9.606753 15.786634 -1.442398
3258 26 -7.103164 14.344520 -1.890599
3259 26 -2.120918 -10.162237 -3.347105
3260 26 -7.048801 -2.715760 3.712603
3261 26 -9.473122 10.433646 10.973336
3262 26 -10.443510 10.249228 7.612346
3263 26 -2.213461 -0.919122 10.169853
3264 26 -3.191428 -8.684108 -9.746148
3265 26 -16.836203 1.017742 5.136457
3266 26 -0.908219 11.939924 -13.028594
3267 26 -2.058514 9.976042 -14.086255
3268 26 -1.805962 -5.053176 12.855697
3269 26 -4.345851 8.188317 -1.180167
3270 26 -3.093478 8.110833 -9.531040
3271 26 -6.003980 6.943055 -3.426002
3272 26 -11.677759 9.976926 4.046468
3273 26 -4.537432 12.581927 11.182945
3274 26 -17.358848 3.082251 2.412970
3275 26 -6.130050 11.459444 10.355920
3276 26 -3.517261 11.547924 10.460399
3277 26 -9.485339 11.983774 5.862723
3278 26 -0.553894 16.684860 -3.900923
3279 26 6.966089 6.493427 3.540592
3280 26 11.849753 1.093922 1.689409
3281 26 -2.863380 11.597925 11.856596
3282 26 3.540789 1.091039 0.153977
3283 26 7.877486 -1.134838 -10.983581
3284 26 5.512671 -5.903050 5.671697
3285 26 -8.218722 -8.869703 -7.997360
3286 26 -10.445224 -0.796133 -7.429799
3287 26 -3.808785 -4.773480 -14.011713
3288 26 -10.224734 0.865644 -11.955613
3289 26 -12.670524 -1.489845 -10.570187
3290 26 -12.528498 -4.270718 -9.017320
3291 26 -5.000552 -1.301881 -14.454415
3292 26 -11.210624 -5.954570 -9.789326
3293 26 -1.996763 -6.203255 -10.682573
3294 26 -9.716209 -5.936319 7.796695
3295 26 -3.800024 17.534848 -2.197159
3296 26 -13.012624 -5.700240 6.109352
3297 26 -3.284138 18.025415 -3.312421
3298 26 6.515369 7.233894 5.499222
3299 26 1.547042 -8.081000 -5.292131
3300 26 -2.882635 -0.724997 -2.579019
3301 26 10.822105 3.082535 2.862581
3302 26 4.759945 -2.995620 8.143984
3303 26 -5.619535 10.162946 7.763382
3304 26 -5.854398 10.268957 -13.126868
3305 26 -4.777038 10.815163 -9.014849
3306 26 -6.896672 1.285695 0.272398
3307 26 -6.492675 10.368691 -9.243734
3308 26 -5.752980 8.706935 -13.444716
3309 26 -5.939294 8.929349 -9.797452
3310 26 -7.527927 11.055010 -10.390225
3311 26 -8.534208 15.124754 6.900947
3312 26 -9.189700 6.768154 -12.054628
3313 26 -8.468371 12.171827 2.687867
3314 26 4.623042 -5.486325 -10.140320
3315 26 -2.149125 -0.587051 7.830527
3316 26 -17.163660 3.940066 -0.646761
3317 26 -5.351355 -7.882906 -7.545196
3318 26 -5.151541 -0.892984 9.709018
3319 26 -8.328997 2.606327 -9.900144
3320 26 -13.637934 7.550684 3.541309
3321 26 -1.046408 6.320772 8.407947
3322 26 -6.192151 7.097193 9.059972
3323 26 -2.223835 -10.494903 7.530872
3324 26 -3.432443 7.699443 13.961400
3325 26 -0.146265 3.463148 -6.800178
3326 26 10.087633 7.992857 -5.453171
3327 26 6.372032 -0.814978 10.401282
3328 26 -1.299738 -2.163861 -8.793339
3329 26 11.505544 5.412720 4.978592
3330 26 1.367958 -6.703392 4.002203
3331 26 -2.753538 -7.431999 6.766543
3332 26 -7.356096 -1.634922 10.878059
3333 26 4.614938 8.494261 -2.699367
3334 26 -2.438298 10.052038 -6.245617
3335 26 4.974389 4.186409 -8.677869
3336 26 3.725534 1.161847 -10.519633
3337 26 -4.130738 3.179499 -9.355907
3338 26 1.273603 15.452760 1.616894
3339 26 2.987078 3.177712 11.348297
3340 26 3.939579 11.494774 -3.681769
3341 26 0.934881 -6.251496 -3.289238
3342 26 7.895554 -7.178337 1.020249
3343 26 3.307981 -1.299951 -11.690150
3344 26 4.649568 11.285521 7.425647
3345 26 1.463110 -3.058167 10.714016
3346 26 -5.810708 2.316756 -7.879089
3347 26 8.420838 -1.306670 6.295357
3348 26 -6.561348 8.723701 2.223221
3349 26 2.547276 -0.462449 8.155254
3350 26 -7.506079 4.946591 9.275170
3351 26 -1.865814 0.583466 -8.707643
3352 26 4.042393 12.799840 9.862626
3353 26 6.460356 13.805504 6.506179
3354 26 -8.323274 -5.662920 5.009554
3355 26 -6.801597 8.298481 4.788749
3356 26 -1.845094 11.775398 1.504878
3357 26 1.122201 12.762645 4.224219
3358 26 7.950223 10.463066 7.186398
3359 26 -0.199596 2.095982 10.992899
3360 26 4.849553 8.300300 -5.137995
3361 26 10.163222 3.656069 -3.370452
3362 26 2.228855 13.428357 0.091710
3363 26 -6.056372 -5.627618 8.951478
3364 26 -2.271419 12.500490 -0.699032
3365 26 9.283652 2.323216 7.412853
3366 26 6.643629 -4.360404 6.955909
3367 26 5.771690 -3.624984 3.185866
3368 26 10.525897 5.606658 0.153464
3369 26 9.407240 -2.502692 4.492968
3370 26 -0.043589 -4.195254 -9.938356
3371 26 0.938514 9.232312 -3.336224
3372 26 -6.426716 3.164854 5.193426
3373 26 2.796158 12.449869 2.028936
3374 26 -1.029201 -5.469387 3.890436
3375 26 2.709588 13.617621 6.654346
3376 26 -1.277809 3.573297 14.234294
3377 26 6.080735 5.613708 -8.169716
3378 26 4.145185 0.217913 8.719650
3379 26 4.679312 -4.553604 5.800860
3380 26 4.408228 -1.407945 11.267325
3381 26 2.537936 8.425523 -7.082374
3382 26 5.389344 -2.379963 5.151426
3383 26 4.452898 15.611803 4.389025
3384 26 9.451504 1.656613 9.370001
3385 26 -8.746531 2.575836 -5.466197
3386 26 8.585903 8.539694 7.325982
3387 26 -4.900086 -4.805397 7.213999
3388 26 1.684055 1.100487 -9.556488
3389 26 0.899658 -4.125330 4.557702
3390 26 8.163928 0.113757 7.946239
3391 26 -7.100902 1.600862 10.067048
3392 26 -5.137436 -2.830417 9.503439
3393 26 -5.300074 -7.147452 5.197262
3394 26 -2.323608 -6.287809 12.595732
3395 26 -3.798497 6.829824 -10.384211
3396 26 7.805457 5.279178 6.950942
3397 26 -17.148696 5.208057 0.398053
3398 26 2.471375 -3.178300 8.781711
3399 26 -11.701506 1.612802 -8.838589
3400 26 -2.415290 12.508868 9.116276
3401 26 -6.501166 10.040598 9.658103
3402 26 0.547647 10.532131 9.752731
3403 26 -1.364132 8.315354 8.604669
3404 26 -5.864258 -11.804137 -4.811152
3405 26 -15.468631 5.277466 1.792274
3406 26 -14.133707 3.643478 2.343212
3407 26 -9.092395 -3.856786 -12.364212
3408 26 -7.500653 -2.881243 12.144907
3409 26 -5.516474 -2.685072 14.215391
3410 26 -7.702891 -3.592600 13.861749
3411 26 -7.031473 -5.063983 13.362955
3412 26 -10.952349 -7.186413 -8.329637
3413 26 -6.270909 -1.091032 -9.388572
3414 26 -9.828705 3.071165 12.759256
3415 26 -9.780739 0.443417 13.210619
3416 26 -7.023097 -2.216015 14.291436
3417 26 -5.470885 -5.399850 13.137957
3418 26 -6.486973 -1.972841 12.975353
3419 26 -5.133430 -3.091473 12.699051
3420 26 -5.751782 -4.318525 11.812395
3421 26 -4.406258 -4.271577 13.460425
3422 26 -5.756478 -4.128521 14.214603
3423 26 -8.367967 -2.116311 13.371984
3424 26 -8.696486 8.140308 10.707752
3425 26 -4.904296 14.356055 2.449577
3426 26 -6.077363 11.845945 -9.869382
3427 26 -8.563979 11.123635 -8.841722
3428 26 -5.310115 -3.157888 -11.452843
3429 26 -8.789550 -2.719518 -11.211651
3430 26 -8.283302 -4.463592 -8.741515
3431 26 -6.328655 -4.061018 -10.780871
3432 26 -7.994442 -2.506114 -13.157828
3433 26 -6.552700 -2.540732 -13.231434
3434 26 -3.494861 -11.279931 -0.795180
3435 26 -9.480142 0.141474 0.071062
3436 26 -1.980863 15.404506 -1.845156
3437 26 -2.946846 -8.417121 8.950049
3438 26 6.526034 6.567521 11.701104
3439 26 5.693217 7.307264 9.451237
3440 26 1.881444 3.962810 -13.063626
3441 26 -11.890111 0.984610 -11.212099
3442 26 5.526303 7.207000 10.980796
3443 26 6.117512 4.227944 9.643962
3444 26 8.028874 6.766962 11.234523
3445 26 -12.063027 7.965462 11.354969
3446 26 -13.232391 1.395460 -10.990544
3447 26 -9.921092 1.848161 -7.753644
3448 26 -10.563005 15.425553 3.941137
3449 26 0.241859 -8.577370 10.741162
3450 26 -1.168700 -9.574892 10.350742
3451 26 4.799289 4.800367 10.460505
3452 26 -11.685892 4.093366 -11.436586
3453 26 9.586543 2.595939 3.770174
3454 26 5.206840 5.860081 12.106373
3455 26 7.222798 4.665245 10.556817
3456 26 6.500425 6.037979 9.269200
3457 26 6.927258 -2.018286 -5.648110
3458 26 4.178542 0.322146 -6.525540
3459 26 6.208948 -7.009783 -5.341852
3460 26 -2.054663 -9.067896 7.645297
3461 26 -4.055555 14.552815 -2.672374
3462 26 8.160256 5.150499 11.565949
3463 26 -1.347533 5.378836 10.938102
3464 26 3.529845 3.904522 -5.983088
3465 26 -10.569266 6.493348 12.370681
3466 26 -4.681991 0.111093 -1.824980
3467 26 -10.162371 -4.697695 4.633022
3468 26 -3.069141 0.410066 -3.889997
3469 26 -14.504313 9.994568 1.620816
3470 26 -12.777222 8.956738 3.129348
3471 26 -14.316948 11.413906 3.145773
3472 26 -14.849666 7.247545 3.142641
3473 26 -13.262339 11.267165 2.026534
3474 26 -12.697780 10.000600 1.994476
3475 26 -15.787145 7.893465 4.105065
3476 26 -14.615175 11.502134 1.631294
3477 26 -2.105985 2.756475 -4.018989
3478 26 -1.401532 2.190723 -6.216108
3479 26 -0.691192 -6.147353 0.611517
3480 26 -3.427009 -3.988582 11.055474
3481 26 -1.666626 -4.275895 1.426422
3482 26 5.983257 4.529301 -13.666556
3483 26 1.377182 3.455611 -7.982411
3484 26 -9.127496 -2.617179 6.735483
3485 26 -2.240053 1.796750 10.914177
3486 26 4.129642 5.004249 14.042047
3487 26 5.273114 2.325000 -13.269174
3488 26 -10.127250 13.238316 3.580281
3489 26 -11.146754 -3.957213 7.950462
3490 26 -11.869707 -3.071533 8.605935
3491 26 -5.883407 -10.651557 2.235045
3492 26 -0.108788 3.424712 -15.322385
3493 26 -8.000583 3.855803 0.623962
3494 26 -10.088928 13.288783 -1.425478
3495 26 -8.987667 15.836281 -2.948502
3496 26 -2.436112 4.748495 -6.405415
3497 26 -10.737755 2.743334 -1.808310
3498 26 11.381992 7.885527 -6.059324
3499 26 6.526688 -2.863294 11.184431
3500 26 4.956988 3.563461 -1.190812
3501 26 -9.129297 4.108794 -9.325035
3502 26 -13.529312 -2.393854 6.802538
3503 26 -2.970786 -3.296510 -5.059044
3504 26 -10.713993 8.849178 8.781623
3505 26 -6.547320 -10.950933 -5.933055
3506 26 -4.748072 4.760438 -2.974246
3507 26 -2.417864 9.871793 -12.622787
3508 26 -5.150424 9.330366 9.128326
3509 26 -2.404713 -1.042451 12.945998
3510 26 -6.781065 3.733076 -13.063822
3511 26 -2.142177 -12.006296 2.061916
3512 26 1.728641 15.460629 -1.732730
3513 26 -5.182948 9.515099 -3.242585
3514 26 -0.538801 7.425105 -5.811056
3515 26 0.260016 -11.516840 2.754711
3516 26 -5.536850 -6.384061 11.174112
3517 26 1.482240 -8.519356 1.326615
3518 26 -2.850421 -2.398160 -0.701797
3519 26 -9.827922 2.028949 2.500776
3520 26 -0.561599 -2.926240 7.902721
3521 26 -1.891052 6.521906 -7.726100
3522 26 -1.319000 3.771237 -10.262921
3523 26 -0.292768 -10.592422 -1.960676
3524 26 5.670952 6.582011 4.269829
3525 26 -8.035404 15.455628 -1.805533
3526 26 0.576293 4.720815 -7.595622
3527 26 -15.454019 10.182151 2.971833
3528 26 -1.252347 -9.499661 4.036666
3529 26 7.718702 5.352460 3.916497
3530 26 7.959129 4.159871 5.626878
3531 26 -4.261413 -1.953822 0.280235
3532 26 -3.817268 6.329722 8.001124
3533 26 -2.349610 -8.903405 -6.711856
3534 26 2.656261 9.286285 -11.599875
3535 26 8.544676 7.154422 -4.004859
3536 26 -0.766793 4.409559 -14.684237
3537 26 -6.647330 -10.122987 7.074491
3538 26 -16.144080 8.376413 2.705415
3539 26 -9.278865 1.614675 12.245618
3540 26 -8.899968 2.529251 14.478485
3541 26 -8.766326 0.977519 14.344945
3542 26 -13.474798 10.610135 7.058540
3543 26 -2.526014 -1.795134 4.565789
3544 26 -1.900300 -1.526505 -15.155298
3545 26 0.239452 -4.132941 -12.859044
3546 26 -0.906001 -3.408981 -11.960239
3547 26 -3.107048 9.095830 14.080028
3548 26 -2.662084 18.163698 0.270728
3549 26 -0.486733 6.317835 -14.760555
3550 26 3.400119 16.283607 0.786831
3551 26 -6.094541 -10.631093 5.247375
3552 26 -13.540702 2.670801 6.118198
3553 26 -9.705420 1.882170 9.162946
3554 26 -12.059847 1.982983 11.135167
3555 26 -12.705274 0.878049 6.650412
3556 26 -6.956837 14.282730 5.764665
3557 26 -10.861827 3.196221 10.448266
3558 26 -9.885894 2.944374 6.043736
3559 26 -6.620435 11.878089 5.631456
3560 26 -15.558912 3.465352 7.692945
3561 26 -7.959257 16.495153 4.380635
3562 26 -9.487367 13.355585 5.026630
3563 26 -11.282589 14.856939 1.596538
3564 26 -12.412880 4.524260 10.100832
3565 26 -13.688137 1.544462 8.530357
3566 26 -9.508743 2.516664 7.652788
3567 26 -12.545867 3.347606 11.037897
3568 26 -14.836464 2.061234 5.737115
3569 26 -12.373470 4.770079 5.373231
3570 26 -14.457251 0.671448 5.687415
3571 26 -11.454640 -0.573788 6.844363
3572 26 -12.801894 4.037777 6.723598
3573 26 -11.299992 0.296552 5.841969
3574 26 -13.772060 2.299398 10.316780
3575 26 -4.830167 9.489983 -9.214218
3576 26 -8.631295 12.569441 -9.306216
3577 26 -7.807666 10.847873 5.071566
3578 26 -12.070210 5.526777 8.665084
3579 26 -13.949836 -0.002072 6.710724
3580 26 -5.711537 13.259914 5.973582
3581 26 -12.188041 5.558993 6.688741
3582 26 -6.580359 8.652159 -11.494524
3583 26 -5.133053 11.121649 -10.708287
3584 26 -10.942528 5.478338 7.707781
3585 26 -12.751857 -0.132079 7.500516
3586 26 -13.953595 3.115940 8.948933
3587 26 -13.874229 5.147660 5.712441
3588 26 -5.280598 11.582957 -12.161121
3589 26 -7.345229 15.920098 6.258934
3590 26 -6.568815 16.949780 2.622037
3591 26 -6.425144 13.443291 4.344994
3592 26 -6.628466 15.190608 4.084371
3593 26 -10.285482 12.080276 1.543322
3594 26 -9.935517 15.000705 0.855350
3595 26 -12.763000 0.541067 5.229026
3596 26 -9.799266 4.070179 7.504409
3597 26 -9.268005 8.858883 -10.128862
3598 26 -15.104995 2.230943 8.705809
3599 26 -2.697135 2.639764 -13.440229
3600 26 -5.571661 15.657643 2.242192
3601 26 -10.394969 2.753406 -10.334188
3602 26 -10.802023 4.649842 6.400403
3603 26 -14.354335 3.746605 5.378051
3604 26 -14.594209 4.757806 7.081353
3605 26 -12.782184 1.433514 9.652647
3606 26 -11.061625 4.485123 9.420065
3607 26 -10.367505 0.978913 -6.721406
3608 26 -10.587789 1.708493 10.396529
3609 26 -12.974696 3.591660 4.725415
3610 26 -7.707692 8.320781 -12.233261
3611 26 -7.387622 10.358668 -12.623247
3612 26 -7.216811 10.457331 -7.727673
3613 26 -10.069496 9.001696 -11.574466
3614 26 -6.887488 11.615787 -12.004916
3615 26 -7.908321 12.415053 -10.872892
3616 26 -2.933498 -2.922510 6.596108
3617 26 -11.695091 0.740090 10.282245
3618 26 -14.040869 3.023782 7.402088
3619 26 -13.993037 3.903450 10.148282
3620 26 -10.613542 0.503152 9.341872
3621 26 -13.662091 5.141272 9.182660
3622 26 -11.390618 -0.285648 8.479352
3623 26 -10.927882 2.565493 7.089467
3624 26 -9.939214 3.538901 9.010046
3625 26 -12.790312 3.994457 8.397190
3626 26 -15.406069 3.976822 6.293299
3627 26 -12.209589 1.988053 6.173843
3628 26 -12.623956 10.571405 8.141495
3629 26 -12.718733 0.428346 -9.894454
3630 26 -4.438170 -9.797132 3.190933
3631 26 -11.431473 3.486583 5.751006
3632 26 -10.158984 1.349976 6.449354
3633 26 -11.313201 3.977294 7.900481
3634 26 -12.273256 2.968865 9.502057
3635 26 -6.051691 7.346889 -12.115895
3636 26 -13.508318 1.888859 4.741106
3637 26 -11.969033 2.449124 4.727653
3638 26 -5.167960 8.113765 -10.835100
3639 26 -10.751564 1.143901 7.898500
3640 26 -14.421096 1.253295 7.373537
3641 26 -8.158818 9.658839 -9.008639
3642 26 -7.757581 6.651546 -12.437163
3643 26 -15.565423 1.946738 7.059709
3644 26 -9.393776 11.748995 -10.287143
3645 26 -13.373548 5.302626 7.632561
3646 26 -12.259541 1.172715 8.253793
3647 26 -14.875976 4.456372 8.591075
3648 26 -10.825033 1.662862 5.230263
3649 26 4.963428 5.932543 -11.875467
3650 26 5.400378 4.908572 -2.170930
3651 26 -0.908528 -5.633213 -3.131350
3652 26 3.447121 15.572159 -3.844601
3653 26 -6.594271 12.137203 -5.788524
3654 26 3.968508 9.667710 3.156046
3655 26 -1.757538 7.026534 -2.980215
3656 26 -1.428958 -11.240241 -2.634709
3657 26 -2.236038 -0.030730 16.004355
3658 26 -11.595533 -6.970700 5.550898
3659 26 -8.784239 -7.556604 7.812934
3660 26 -9.794780 -7.245128 8.741205
3661 26 -9.778717 -8.390113 6.500280
3662 26 -0.422392 17.732441 -2.412004
3663 26 -3.558497 -12.045741 3.416570
3664 26 -4.798336 -11.086078 4.124824
3665 26 -16.119636 3.646772 2.819458
3666 26 -17.039340 3.713084 1.003149
3667 26 -14.443897 2.078873 1.974617
3668 26 -11.461123 -0.435876 1.600437
3669 26 -4.712933 -8.460176 -10.599865
3670 26 -1.293957 3.240119 7.817182
3671 26 -2.791895 3.690723 6.344221
3672 26 5.073481 1.511611 0.709499
3673 26 -0.417268 17.015375 2.324693
3674 26 -4.130591 -7.052946 -8.220417
3675 26 -1.386906 10.550469 -2.049023
3676 26 -0.810918 6.591772 -1.592876
3677 26 0.261899 -5.658917 -0.901380
3678 26 -1.132760 11.852785 -4.718001
3679 26 -6.342201 2.485754 15.197146
3680 26 0.659448 15.773026 -2.926921
3681 26 1.428626 -3.758938 0.182185
3682 26 1.606571 -4.976697 1.054716
3683 26 -7.374459 15.307140 -7.115498
3684 26 -6.973280 -8.723618 7.568358
3685 26 -1.650843 3.199710 -7.433559
3686 26 -15.847658 9.433828 1.706886
3687 26 -13.339294 11.941461 6.498684
3688 26 -10.733779 2.869884 -11.850341
3689 26 -11.102476 0.784963 -9.828141
3690 26 4.801664 7.027565 6.177302
3691 26 1.969682 4.732696 -9.190916
3692 26 -4.099897 0.408939 -13.894100
3693 26 -2.163582 0.706860 -13.842729
3694 26 -3.755102 -0.172713 -12.357344
3695 26 -0.780865 -11.402650 3.618616
3696 26 -2.408748 -10.429606 -1.934759
3697 26 -15.117349 -0.988114 7.530680
3698 26 9.945973 6.372530 -6.111105
3699 26 -2.190630 -10.314527 1.743718
3700 26 -7.495212 16.475104 1.160684
3701 26 -13.654065 0.062642 10.604716
3702 26 -3.318297 -9.750985 4.331059
3703 26 -4.451649 -0.815478 -2.818656
3704 26 -4.354042 -7.244689 4.099935
3705 26 0.032557 -7.298853 -7.867631
3706 26 0.492846 15.550688 -0.600730
3707 26 -8.585583 7.041692 2.041380
3708 26 11.900326 2.536422 1.849744
3709 26 7.059288 2.977939 -11.914190
3710 26 -9.004862 16.464236 1.391093
3711 26 -8.480774 7.986645 -11.080614
3712 26 -1.225512 9.523610 -11.650412
3713 26 -2.810650 0.369471 10.454320
3714 26 0.225444 -4.315610 -0.265770
3715 26 -5.340150 15.209404 -4.212796
3716 26 8.158397 -4.348369 4.779613
3717 26 1.202762 -9.406286 -5.798387
3718 26 0.352542 8.629719 8.857517
3719 26 -3.571925 15.429684 -9.452376
3720 26 -2.091141 6.816419 13.823703
3721 26 -3.431868 14.731012 10.620007
3722 26 0.610501 -6.028428 1.942978
3723 26 1.133351 17.846652 0.595550
3724 26 -6.212917 -0.307217 15.355619
3725 26 -1.308705 9.870469 -10.258431
3726 26 -0.083394 9.883455 -14.258668
3727 26 2.307287 8.290380 -12.998828
3728 26 -1.854353 11.007631 -11.332201
3729 26 -4.391381 10.183620 6.667035
3730 26 -1.810477 2.887532 1.967513
3731 26 -5.095916 2.027234 14.588918
3732 26 -0.558006 -3.342847 2.373267
3733 26 1.544992 -2.276669 14.230796
3734 26 -3.588259 0.114635 14.041473
3735 26 -4.509473 4.636491 -13.875012
3736 26 2.583972 -5.447107 -12.126721
3737 26 0.952311 -5.727621 -12.142771
3738 26 1.173661 14.462167 9.529014
3739 26 -8.703101 7.177210 12.337021
3740 26 -8.560631 -1.251550 -11.980013
3741 26 -8.147641 -4.159675 -10.961644
3742 26 -7.647298 -4.244464 11.529812
3743 26 -9.907713 -3.398715 -10.284116
3744 26 -5.450561 -1.887514 -11.844505
3745 26 -8.654996 -1.975564 -8.972683
3746 26 -7.026215 -5.953621 -10.600684
3747 26 -7.183452 -1.131826 -12.041644
3748 26 -7.694136 -4.085550 -12.831778
3749 26 -7.699642 -1.537276 -10.378610
3750 26 -9.301370 -3.325925 -8.517981
3751 26 -10.346877 1.907768 13.480287
3752 26 -9.034472 3.881274 13.849132
3753 26 -6.403438 -2.716224 -9.567250
3754 26 -6.329557 -3.751354 -12.446504
3755 26 -8.200378 0.814677 13.081659
3756 26 1.766753 -9.780212 -3.365434
3757 26 0.186078 -8.373423 -2.279566
3758 26 0.865370 -8.994845 -1.496776
3759 26 -10.061557 7.622502 -11.303528
3760 26 -8.311652 -5.367010 -10.024936
3761 26 -9.785369 -1.744407 -10.671196
3762 26 -6.034801 8.644771 -8.193993
3763 26 3.478846 -9.260401 -3.729105
3764 26 -9.148957 -0.677626 -10.326876
3765 26 -7.084274 -4.441188 -9.522893
3766 26 -8.786121 8.825627 12.655872
3767 26 8.141945 5.133121 -5.613338
3768 26 3.383394 -10.345383 -0.760728
3769 26 -4.715512 10.155330 -12.179710
3770 26 -6.985327 12.993948 -9.815024
3771 26 -7.233491 9.145612 -13.406516
3772 26 -2.018127 7.594522 6.890407
3773 26 -6.839503 6.599777 -11.041408
3774 26 -9.399774 -2.272618 -12.692941
3775 26 -10.458868 -3.048401 -11.690218
3776 26 -10.092391 -2.196308 -9.199024
3777 26 -9.709478 -4.444036 -9.388908
3778 26 0.697840 14.015954 8.273671
3779 26 -5.750870 11.716578 11.641411
3780 26 -8.959787 -3.419949 12.718745
3781 26 9.208919 5.205752 -7.263389
3782 26 4.491211 -9.229988 -2.489513
3783 26 -8.315998 -5.402073 -11.760536
3784 26 -7.315446 -1.503769 -8.363445
3785 26 -5.386423 -1.759370 -10.457367
3786 26 -6.774571 -5.143617 -11.761620
3787 26 -7.105780 -2.625177 -11.586803
3788 26 -7.250456 -0.187959 -10.183555
3789 26 -6.062280 12.595277 -11.113586
3790 26 -5.073273 8.694420 -12.182586
3791 26 -3.324197 3.971447 -0.746414
3792 26 -2.388650 3.217951 0.048910

Bonds
1 1 1 131
2 1 2 131
3 1 3 130
4 1 3 131
5 1 4 130
6 1 4 131
7 1 5 130
8 1 5 131
9 1 6 130
10 1 6 131
11 1 7 130
12 1 7 131
13 1 8 130
14 1 8 131
15 1 9 130
16 1 9 131
17 1 10 130
18 1 10 131
19 1 11 130
20 1 11 131
21 1 12 130
22 1 12 131
23 1 13 130
24 1 13 131
25 1 14 130
26 1 14 131
27 1 15 130
28 1 15 131
29 1 16 130
30 1 16 131
31 1 17 130
32 1 17 131
33 1 18 130
34 1 18 131
35 1 19 130
36 1 19 131
37 1 20 130
38 1 20 131
39 1 21 130
40 1 21 131
41 1 22 130
42 1 22 131
43 1 23 130
44 1 23 131
45 1 24 130
46 1 24 131
47 1 25 130
48 1 25 131
49 1 26 130
50 1 26 131
51 1 27 130
52 1 27 131
53 1 28 130
54 1 28 131
55 1 29 130
56 1 29 131
57 1 30 130
58 1 30 131
59 1 31 130
60 1 31 131
61 1 32 130
62 1 32 131
63 1 33 130
64 1 33 131
65 1 34 130
66 1 34 131
67 1 35 130
68 1 35 131
69 1 36 130
70 1 36 131
71 1 37 130
72 1 37 131
73 1 38 130
74 1 38 131
75 1 39 130
76 1 39 131
77 1 40 130
78 1 40 131
79 1 41 130
80 1 41 131
81 1 42 130
82 1 42 131
83 1 43 130
84 1 43 131
85 1 44 130
86 1 44 131
87 1 45 130
88 1 45 131
89 1 46 130
90 1 46 131
91 1 47 130
92 1 47 131
93 1 48 130
94 1 48 131
95 1 49 130
96 1 49 131
97 1 50 130
98 1 50 131
99 1 51 130
100 1 51 131
101 1 52 130
102 1 52 131
103 1 53 130
104 1 53 131
105 1 54 130
106 1 54 131
107 1 55 130
108 1 55 131
109 1 56 130
110 1 56 131
111 1 57 130
112 1 57 131
113 1 58 130
114 1 58 131
115 1 59 130
116 1 59 131
117 1 60 130
118 1 60 131
119 1 61 130
120 1 61 131
121 1 62 130
122 1 62 131
123 1 63 130
124 1 63 131
125 1 64 130
126 1 64 131
127 1 65 130
128 1 65 131
129 1 66 130
130 1 66 131
131 1 67 130
132 1 67 131
133 1 68 130
134 1 68 131
135 1 69 130
136 1 69 131
137 1 70 130
138 1 70 131
139 1 71 130
140 1 71 131
141 1 72 130
142 1 72 131
143 1 73 130
144 1 73 131
145 1 74 130
146 1 74 131
147 1 75 130
148 1 75 131
149 1 76 130
150 1 76 131
151 1 77 130
152 1 77 131
153 1 78 130
154 1 78 131
155 1 79 130
156 1 79 131
157 1 80 130
158 1 80 131
159 1 81 130
160 1 81 131
161 1 82 130
162 1 82 131
163 1 83 130
164 1 83 131
165 1 84 130
166 1 84 131
167 1 85 130
168 1 85 131
169 1 86 130
170 1 86 131
171 1 87 130
172 1 87 131
173 1 88 130
174 1 88 131
175 1 89 130
176 1 89 131
177 1 90 130
178 1 90 131
179 1 91 130
180 1 91 131
181 1 92 130
182 1 92 131
183 1 93 130
184 1 93 131
185 1 94 130
186 1 94 131
187 1 95 130
188 1 95 131
189 1 96 130
190 1 96 131
191 1 97 130
192 1 97 131
193 1 98 130
194 1 98 131
195 1 99 130
196 1 99 131
197 1 100 130
198 1 100 131
199 1 101 130
200 1 101 131
201 1 102 130
202 1 102 131
203 1 103 130
204 1 103 131
205 1 104 130
206 1 104 131
207 1 105 130
208 1 105 131
209 1 106 130
210 1 106 131
211 1 107 130
212 1 107 131
213 1 108 130
214 1 108 131
215 1 109 130
216 1 109 131
217 1 110 130
218 1 110 131
219 1 111 130
220 1 111 131
221 1 112 130
222 1 112 131
223 1 113 130
224 1 113 131
225 1 114 130
226 1 114 131
227 1 115 130
228 1 115 131
229 1 116 130
230 1 116 131
231 1 117 130
232 1 117 131
233 1 118 130
234 1 118 131
235 1 119 130
236 1 119 131
237 1 120 130
238 1 120 131
239 1 121 130
240 1 121 131
241 1 122 130
242 1 122 131
243 1 123 130
244 1 123 131
245 1 124 130
246 1 124 131
247 1 125 130
248 1 125 131
249 1 126 130
250 1 126 131
251 1 127 130
252 1 127 131
253 1 128 130
254 1 128 131
255 1 129 130
256 1 129 131
257 1 130 131
258 1 132 297
259 1 140 294
260 1 140 297
261 1 154 294
262 1 154 297
263 1 196 294
264 1 196 297
265 1 183 295
266 1 183 297
267 1 198 295
268 1 198 297
269 1 200 295
270 1 200 297
271 1 243 295
272 1 243 297
273 1 133 296
274 1 133 297
275 1 134 133
276 1 134 297
277 1 135 133
278 1 135 297
279 1 136 133
280 1 136 297
281 1 137 133
282 1 137 297
283 1 138 133
284 1 138 297
285 1 139 296
286 1 139 297
287 1 141 296
288 1 141 297
289 1 149 141
290 1 149 297
291 1 239 141
292 1 239 297
293 1 142 296
294 1 142 297
295 1 158 142
296 1 158 297
297 1 186 142
298 1 186 297
299 1 203 142
300 1 203 297
301 1 150 296
302 1 150 297
303 1 159 296
304 1 159 297
305 1 160 296
306 1 160 297
307 1 143 160
308 1 143 297
309 1 156 160
310 1 156 297
311 1 170 160
312 1 170 297
313 1 232 160
314 1 232 297
315 1 161 296
316 1 161 297
317 1 162 296
318 1 162 297
319 1 191 162
320 1 191 297
321 1 163 296
322 1 163 297
323 1 153 163
324 1 153 297
325 1 226 163
326 1 226 297
327 1 166 296
328 1 166 297
329 1 167 166
330 1 167 297
331 1 174 296
332 1 174 297
333 1 175 174
334 1 175 297
335 1 176 174
336 1 176 297
337 1 177 174
338 1 177 297
339 1 178 174
340 1 178 297
341 1 179 174
342 1 179 297
343 1 180 174
344 1 180 297
345 1 182 296
346 1 182 297
347 1 185 296
348 1 185 297
349 1 192 296
350 1 192 297
351 1 218 192
352 1 218 297
353 1 194 296
354 1 194 297
355 1 224 194
356 1 224 297
357 1 197 296
358 1 197 297
359 1 225 197
360 1 225 297
361 1 199 296
362 1 199 297
363 1 201 296
364 1 201 297
365 1 151 201
366 1 151 297
367 1 204 296
368 1 204 297
369 1 205 296
370 1 205 297
371 1 168 205
372 1 168 297
373 1 188 205
374 1 188 297
375 1 189 205
376 1 189 297
377 1 206 205
378 1 206 297
379 1 208 296
380 1 208 297
381 1 215 296
382 1 215 297
383 1 147 215
384 1 147 297
385 1 164 215
386 1 164 297
387 1 165 215
388 1 165 297
389 1 202 215
390 1 202 297
391 1 207 215
392 1 207 297
393 1 209 215
394 1 209 297
395 1 210 215
396 1 210 297
397 1 211 215
398 1 211 297
399 1 214 215
400 1 214 297
401 1 227 215
402 1 227 297
403 1 241 215
404 1 241 297
405 1 242 215
406 1 242 297
407 1 220 296
408 1 220 297
409 1 146 220
410 1 146 297
411 1 157 220
412 1 157 297
413 1 181 220
414 1 181 297
415 1 195 220
416 1 195 297
417 1 213 220
418 1 213 297
419 1 221 220
420 1 221 297
421 1 222 220
422 1 222 297
423 1 229 296
424 1 229 297
425 1 230 296
426 1 230 297
427 1 216 230
428 1 216 297
429 1 231 296
430 1 231 297
431 1 155 231
432 1 155 297
433 1 173 231
434 1 173 297
435 1 184 231
436 1 184 297
437 1 187 231
438 1 187 297
439 1 190 231
440 1 190 297
441 1 212 231
442 1 212 297
443 1 219 231
444 1 219 297
445 1 233 231
446 1 233 297
447 1 234 231
448 1 234 297
449 1 236 231
450 1 236 297
451 1 237 296
452 1 237 297
453 1 144 237
454 1 144 297
455 1 148 237
456 1 148 297
457 1 152 237
458 1 152 297
459 1 169 237
460 1 169 297
461 1 171 237
462 1 171 297
463 1 172 237
464 1 172 297
465 1 193 237
466 1 193 297
467 1 228 237
468 1 228 297
469 1 235 237
470 1 235 297
471 1 238 296
472 1 238 297
473 1 240 296
474 1 240 297
475 1 145 240
476 1 145 297
477 1 244 296
478 1 244 297
479 1 217 244
480 1 217 297
481 1 223 244
482 1 223 297
483 1 282 132
484 1 282 297
485 1 284 132
486 1 284 297
487 1 285 132
488 1 285 297
489 1 286 132
490 1 286 297
491 1 281 140
492 1 281 297
493 1 283 154
494 1 283 297
495 1 287 196
496 1 287 297
497 1 280 183
498 1 280 297
499 1 292 183
500 1 292 297
501 1 278 200
502 1 278 297
503 1 290 200
504 1 290 297
505 1 293 200
506 1 293 297
507 1 279 243
508 1 279 297
509 1 291 243
510 1 291 297
511 1 245 296
512 1 245 297
513 1 246 296
514 1 246 297
515 1 247 296
516 1 247 297
517 1 248 296
518 1 248 297
519 1 249 296
520 1 249 297
521 1 250 296
522 1 250 297
523 1 263 139
524 1 263 297
525 1 251 142
526 1 251 297
527 1 267 150
528 1 267 297
529 1 276 159
530 1 276 297
531 1 261 160
532 1 261 297
533 1 277 161
534 1 277 297
535 1 259 162
536 1 259 297
537 1 264 166
538 1 264 297
539 1 255 174
540 1 255 297
541 1 274 185
542 1 274 297
543 1 268 192
544 1 268 297
545 1 269 194
546 1 269 297
547 1 272 197
548 1 272 297
549 1 270 199
550 1 270 297
551 1 258 201
552 1 258 297
553 1 271 204
554 1 271 297
555 1 260 205
556 1 260 297
557 1 254 208
558 1 254 297
559 1 256 215
560 1 256 297
561 1 262 220
562 1 262 297
563 1 252 229
564 1 252 297
565 1 253 230
566 1 253 297
567 1 265 237
568 1 265 297
569 1 273 237
570 1 273 297
571 1 288 237
572 1 288 297
573 1 289 237
574 1 289 297
575 1 275 238
576 1 275 297
577 1 257 240
578 1 257 297
579 1 266 244
580 1 266 297
581 1 294 297
582 1 295 297
583 1 296 297
584 1 298 371
585 1 298 372
586 1 309 298
587 1 309 372
588 1 299 371
589 1 299 372
590 1 308 299
591 1 308 372
592 1 301 371
593 1 301 372
594 1 303 301
595 1 303 372
596 1 304 301
597 1 304 372
598 1 302 371
599 1 302 372
600 1 306 371
601 1 306 372
602 1 307 371
603 1 307 372
604 1 300 307
605 1 300 372
606 1 305 307
607 1 305 372
608 1 310 371
609 1 310 372
610 1 311 371
611 1 311 372
612 1 312 371
613 1 312 372
614 1 313 371
615 1 313 372
616 1 314 371
617 1 314 372
618 1 315 371
619 1 315 372
620 1 316 371
621 1 316 372
622 1 317 371
623 1 317 372
624 1 318 371
625 1 318 372
626 1 319 371
627 1 319 372
628 1 322 371
629 1 322 372
630 1 332 371
631 1 332 372
632 1 333 302
633 1 333 372
634 1 334 302
635 1 334 372
636 1 347 302
637 1 347 372
638 1 351 302
639 1 351 372
640 1 346 371
641 1 346 372
642 1 348 371
643 1 348 372
644 1 349 371
645 1 349 372
646 1 325 306
647 1 325 372
648 1 326 306
649 1 326 372
650 1 327 306
651 1 327 372
652 1 328 306
653 1 328 372
654 1 329 306
655 1 329 372
656 1 330 306
657 1 330 372
658 1 331 306
659 1 331 372
660 1 335 306
661 1 335 372
662 1 342 306
663 1 342 372
664 1 350 306
665 1 350 372
666 1 352 306
667 1 352 372
668 1 354 306
669 1 354 372
670 1 357 306
671 1 357 372
672 1 358 306
673 1 358 372
674 1 359 306
675 1 359 372
676 1 360 306
677 1 360 372
678 1 361 306
679 1 361 372
680 1 362 306
681 1 362 372
682 1 363 306
683 1 363 372
684 1 364 306
685 1 364 372
686 1 365 306
687 1 365 372
688 1 366 306
689 1 366 372
690 1 367 306
691 1 367 372
692 1 368 306
693 1 368 372
694 1 369 306
695 1 369 372
696 1 320 307
697 1 320 372
698 1 321 307
699 1 321 372
700 1 323 307
701 1 323 372
702 1 324 307
703 1 324 372
704 1 336 307
705 1 336 372
706 1 337 307
707 1 337 372
708 1 338 307
709 1 338 372
710 1 339 307
711 1 339 372
712 1 340 307
713 1 340 372
714 1 341 307
715 1 341 372
716 1 343 307
717 1 343 372
718 1 344 307
719 1 344 372
720 1 345 307
721 1 345 372
722 1 353 307
723 1 353 372
724 1 355 307
725 1 355 372
726 1 356 307
727 1 356 372
728 1 370 371
729 1 370 372
730 1 371 372
731 1 373 382
732 1 373 400
733 1 376 382
734 1 376 400
735 1 374 376
736 1 374 400
737 1 379 376
738 1 379 400
739 1 380 399
740 1 380 400
741 1 375 380
742 1 375 400
743 1 377 380
744 1 377 400
745 1 378 380
746 1 378 400
747 1 381 399
748 1 381 400
749 1 382 400
750 1 392 373
751 1 392 400
752 1 393 373
753 1 393 400
754 1 386 376
755 1 386 400
756 1 395 382
757 1 395 400
758 1 396 382
759 1 396 400
760 1 383 399
761 1 383 400
762 1 384 399
763 1 384 400
764 1 385 399
765 1 385 400
766 1 387 380
767 1 387 400
768 1 388 380
769 1 388 400
770 1 390 380
771 1 390 400
772 1 391 380
773 1 391 400
774 1 394 380
775 1 394 400
776 1 397 380
777 1 397 400
778 1 389 381
779 1 389 400
780 1 398 381
781 1 398 400
782 1 399 400
783 1 401 684
784 1 401 685
785 1 472 401
786 1 472 685
787 1 402 684
788 1 402 685
789 1 403 684
790 1 403 685
791 1 404 684
792 1 404 685
793 1 416 404
794 1 416 685
795 1 434 404
796 1 434 685
797 1 439 404
798 1 439 685
799 1 441 404
800 1 441 685
801 1 405 684
802 1 405 685
803 1 415 405
804 1 415 685
805 1 433 405
806 1 433 685
807 1 437 405
808 1 437 685
809 1 440 405
810 1 440 685
811 1 463 405
812 1 463 685
813 1 406 684
814 1 406 685
815 1 423 406
816 1 423 685
817 1 465 406
818 1 465 685
819 1 410 684
820 1 410 685
821 1 407 410
822 1 407 685
823 1 408 410
824 1 408 685
825 1 411 684
826 1 411 685
827 1 417 684
828 1 417 685
829 1 418 684
830 1 418 685
831 1 431 418
832 1 431 685
833 1 446 418
834 1 446 685
835 1 467 418
836 1 467 685
837 1 473 418
838 1 473 685
839 1 425 684
840 1 425 685
841 1 445 425
842 1 445 685
843 1 468 425
844 1 468 685
845 1 428 684
846 1 428 685
847 1 455 428
848 1 455 685
849 1 459 428
850 1 459 685
851 1 438 684
852 1 438 685
853 1 442 684
854 1 442 685
855 1 420 442
856 1 420 685
857 1 422 442
858 1 422 685
859 1 451 442
860 1 451 685
861 1 443 684
862 1 443 685
863 1 432 443
864 1 432 685
865 1 447 443
866 1 447 685
867 1 457 443
868 1 457 685
869 1 474 443
870 1 474 685
871 1 454 684
872 1 454 685
873 1 409 454
874 1 409 685
875 1 412 454
876 1 412 685
877 1 413 454
878 1 413 685
879 1 419 454
880 1 419 685
881 1 421 454
882 1 421 685
883 1 424 454
884 1 424 685
885 1 426 454
886 1 426 685
887 1 430 454
888 1 430 685
889 1 435 454
890 1 435 685
891 1 448 454
892 1 448 685
893 1 449 454
894 1 449 685
895 1 450 454
896 1 450 685
897 1 452 454
898 1 452 685
899 1 453 454
900 1 453 685
901 1 458 454
902 1 458 685
903 1 466 454
904 1 466 685
905 1 470 454
906 1 470 685
907 1 456 684
908 1 456 685
909 1 414 456
910 1 414 685
911 1 469 456
912 1 469 685
913 1 471 456
914 1 471 685
915 1 460 684
916 1 460 685
917 1 461 684
918 1 461 685
919 1 462 684
920 1 462 685
921 1 427 462
922 1 427 685
923 1 436 462
924 1 436 685
925 1 444 462
926 1 444 685
927 1 464 684
928 1 464 685
929 1 429 464
930 1 429 685
931 1 475 684
932 1 475 685
933 1 476 684
934 1 476 685
935 1 553 402
936 1 553 685
937 1 502 403
938 1 502 685
939 1 571 403
940 1 571 685
941 1 572 403
942 1 572 685
943 1 573 403
944 1 573 685
945 1 574 403
946 1 574 685
947 1 575 403
948 1 575 685
949 1 576 403
950 1 576 685
951 1 577 403
952 1 577 685
953 1 578 403
954 1 578 685
955 1 579 403
956 1 579 685
957 1 580 403
958 1 580 685
959 1 581 403
960 1 581 685
961 1 582 403
962 1 582 685
963 1 583 403
964 1 583 685
965 1 584 403
966 1 584 685
967 1 585 403
968 1 585 685
969 1 586 403
970 1 586 685
971 1 587 403
972 1 587 685
973 1 588 403
974 1 588 685
975 1 590 403
976 1 590 685
977 1 478 404
978 1 478 685
979 1 623 404
980 1 623 685
981 1 477 405
982 1 477 685
983 1 622 405
984 1 622 685
985 1 480 684
986 1 480 685
987 1 481 684
988 1 481 685
989 1 482 684
990 1 482 685
991 1 483 684
992 1 483 685
993 1 484 684
994 1 484 685
995 1 485 684
996 1 485 685
997 1 486 684
998 1 486 685
999 1 488 684
1000 1 488 685
1001 1 489 684
1002 1 489 685
1003 1 493 410
1004 1 493 685
1005 1 494 410
1006 1 494 685
1007 1 497 410
1008 1 497 685
1009 1 508 410
1010 1 508 685
1011 1 543 410
1012 1 543 685
1013 1 549 410
1014 1 549 685
1015 1 554 410
1016 1 554 685
1017 1 555 410
1018 1 555 685
1019 1 556 410
1020 1 556 685
1021 1 557 410
1022 1 557 685
1023 1 570 410
1024 1 570 685
1025 1 594 410
1026 1 594 685
1027 1 595 410
1028 1 595 685
1029 1 632 410
1030 1 632 685
1031 1 642 410
1032 1 642 685
1033 1 650 410
1034 1 650 685
1035 1 651 410
1036 1 651 685
1037 1 652 410
1038 1 652 685
1039 1 653 410
1040 1 653 685
1041 1 654 410
1042 1 654 685
1043 1 655 410
1044 1 655 685
1045 1 656 410
1046 1 656 685
1047 1 678 410
1048 1 678 685
1049 1 679 410
1050 1 679 685
1051 1 680 410
1052 1 680 685
1053 1 681 410
1054 1 681 685
1055 1 683 410
1056 1 683 685
1057 1 592 411
1058 1 592 685
1059 1 510 425
1060 1 510 685
1061 1 629 425
1062 1 629 685
1063 1 672 425
1064 1 672 685
1065 1 509 428
1066 1 509 685
1067 1 511 428
1068 1 511 685
1069 1 512 428
1070 1 512 685
1071 1 546 428
1072 1 546 685
1073 1 548 428
1074 1 548 685
1075 1 552 428
1076 1 552 685
1077 1 568 428
1078 1 568 685
1079 1 600 428
1080 1 600 685
1081 1 607 428
1082 1 607 685
1083 1 611 428
1084 1 611 685
1085 1 626 428
1086 1 626 685
1087 1 628 428
1088 1 628 685
1089 1 638 428
1090 1 638 685
1091 1 639 428
1092 1 639 685
1093 1 647 428
1094 1 647 685
1095 1 671 428
1096 1 671 685
1097 1 675 428
1098 1 675 685
1099 1 551 684
1100 1 551 685
1101 1 612 438
1102 1 612 685
1103 1 589 684
1104 1 589 685
1105 1 487 442
1106 1 487 685
1107 1 648 443
1108 1 648 685
1109 1 597 684
1110 1 597 685
1111 1 602 684
1112 1 602 685
1113 1 603 684
1114 1 603 685
1115 1 479 454
1116 1 479 685
1117 1 491 454
1118 1 491 685
1119 1 565 454
1120 1 565 685
1121 1 569 454
1122 1 569 685
1123 1 593 454
1124 1 593 685
1125 1 598 454
1126 1 598 685
1127 1 610 454
1128 1 610 685
1129 1 616 454
1130 1 616 685
1131 1 634 454
1132 1 634 685
1133 1 635 454
1134 1 635 685
1135 1 643 454
1136 1 643 685
1137 1 601 460
1138 1 601 685
1139 1 617 461
1140 1 617 685
1141 1 490 462
1142 1 490 685
1143 1 492 462
1144 1 492 685
1145 1 495 462
1146 1 495 685
1147 1 506 462
1148 1 506 685
1149 1 515 462
1150 1 515 685
1151 1 516 462
1152 1 516 685
1153 1 517 462
1154 1 517 685
1155 1 518 462
1156 1 518 685
1157 1 519 462
1158 1 519 685
1159 1 520 462
1160 1 520 685
1161 1 521 462
1162 1 521 685
1163 1 522 462
1164 1 522 685
1165 1 523 462
1166 1 523 685
1167 1 524 462
1168 1 524 685
1169 1 525 462
1170 1 525 685
1171 1 526 462
1172 1 526 685
1173 1 527 462
1174 1 527 685
1175 1 528 462
1176 1 528 685
1177 1 529 462
1178 1 529 685
1179 1 530 462
1180 1 530 685
1181 1 531 462
1182 1 531 685
1183 1 532 462
1184 1 532 685
1185 1 533 462
1186 1 533 685
1187 1 534 462
1188 1 534 685
1189 1 535 462
1190 1 535 685
1191 1 536 462
1192 1 536 685
1193 1 537 462
1194 1 537 685
1195 1 538 462
1196 1 538 685
1197 1 539 462
1198 1 539 685
1199 1 540 462
1200 1 540 685
1201 1 541 462
1202 1 541 685
1203 1 544 462
1204 1 544 685
1205 1 545 462
1206 1 545 685
1207 1 558 462
1208 1 558 685
1209 1 559 462
1210 1 559 685
1211 1 560 462
1212 1 560 685
1213 1 561 462
1214 1 561 685
1215 1 562 462
1216 1 562 685
1217 1 563 462
1218 1 563 685
1219 1 567 462
1220 1 567 685
1221 1 591 462
1222 1 591 685
1223 1 605 462
1224 1 605 685
1225 1 606 462
1226 1 606 685
1227 1 620 462
1228 1 620 685
1229 1 621 462
1230 1 621 685
1231 1 624 462
1232 1 624 685
1233 1 630 462
1234 1 630 685
1235 1 631 462
1236 1 631 685
1237 1 637 462
1238 1 637 685
1239 1 644 462
1240 1 644 685
1241 1 659 462
1242 1 659 685
1243 1 660 462
1244 1 660 685
1245 1 661 462
1246 1 661 685
1247 1 662 462
1248 1 662 685
1249 1 663 462
1250 1 663 685
1251 1 665 462
1252 1 665 685
1253 1 666 462
1254 1 666 685
1255 1 667 462
1256 1 667 685
1257 1 668 462
1258 1 668 685
1259 1 669 462
1260 1 669 685
1261 1 670 462
1262 1 670 685
1263 1 674 462
1264 1 674 685
1265 1 496 464
1266 1 496 685
1267 1 498 464
1268 1 498 685
1269 1 499 464
1270 1 499 685
1271 1 500 464
1272 1 500 685
1273 1 501 464
1274 1 501 685
1275 1 503 464
1276 1 503 685
1277 1 504 464
1278 1 504 685
1279 1 505 464
1280 1 505 685
1281 1 507 464
1282 1 507 685
1283 1 513 464
1284 1 513 685
1285 1 514 464
1286 1 514 685
1287 1 542 464
1288 1 542 685
1289 1 547 464
1290 1 547 685
1291 1 550 464
1292 1 550 685
1293 1 564 464
1294 1 564 685
1295 1 566 464
1296 1 566 685
1297 1 596 464
1298 1 596 685
1299 1 599 464
1300 1 599 685
1301 1 604 464
1302 1 604 685
1303 1 608 464
1304 1 608 685
1305 1 609 464
1306 1 609 685
1307 1 613 464
1308 1 613 685
1309 1 614 464
1310 1 614 685
1311 1 615 464
1312 1 615 685
1313 1 618 464
1314 1 618 685
1315 1 619 464
1316 1 619 685
1317 1 625 464
1318 1 625 685
1319 1 627 464
1320 1 627 685
1321 1 633 464
1322 1 633 685
1323 1 636 464
1324 1 636 685
1325 1 640 464
1326 1 640 685
1327 1 641 464
1328 1 641 685
1329 1 645 464
1330 1 645 685
1331 1 646 464
1332 1 646 685
1333 1 649 464
1334 1 649 685
1335 1 657 464
1336 1 657 685
1337 1 664 464
1338 1 664 685
1339 1 673 464
1340 1 673 685
1341 1 676 464
1342 1 676 685
1343 1 677 464
1344 1 677 685
1345 1 658 684
1346 1 658 685
1347 1 682 684
1348 1 682 685
1349 1 684 685
1350 1 688 3791
1351 1 688 3792
1352 1 778 688
1353 1 778 3792
1354 1 1054 688
1355 1 1054 3792
1356 1 1101 688
1357 1 1101 3792
1358 1 689 3791
1359 1 689 3792
1360 1 690 3791
1361 1 690 3792
1362 1 691 690
1363 1 691 3792
1364 1 692 690
1365 1 692 3792
1366 1 854 3791
1367 1 854 3792
1368 1 693 854
1369 1 693 3792
1370 1 995 693
1371 1 995 3792
1372 1 1021 693
1373 1 1021 3792
1374 1 1058 1021
1375 1 1058 3792
1376 1 1087 1021
1377 1 1087 3792
1378 1 857 3791
1379 1 857 3792
1380 1 859 3791
1381 1 859 3792
1382 1 865 859
1383 1 865 3792
1384 1 922 859
1385 1 922 3792
1386 1 936 859
1387 1 936 3792
1388 1 964 859
1389 1 964 3792
1390 1 695 964
1391 1 695 3792
1392 1 696 964
1393 1 696 3792
1394 1 697 964
1395 1 697 3792
1396 1 698 964
1397 1 698 3792
1398 1 699 964
1399 1 699 3792
1400 1 700 964
1401 1 700 3792
1402 1 701 964
1403 1 701 3792
1404 1 702 964
1405 1 702 3792
1406 1 703 964
1407 1 703 3792
1408 1 704 964
1409 1 704 3792
1410 1 705 964
1411 1 705 3792
1412 1 706 964
1413 1 706 3792
1414 1 707 964
1415 1 707 3792
1416 1 708 964
1417 1 708 3792
1418 1 709 964
1419 1 709 3792
1420 1 710 964
1421 1 710 3792
1422 1 711 964
1423 1 711 3792
1424 1 712 964
1425 1 712 3792
1426 1 713 964
1427 1 713 3792
1428 1 714 964
1429 1 714 3792
1430 1 715 964
1431 1 715 3792
1432 1 716 964
1433 1 716 3792
1434 1 717 964
1435 1 717 3792
1436 1 718 964
1437 1 718 3792
1438 1 720 964
1439 1 720 3792
1440 1 721 964
1441 1 721 3792
1442 1 722 964
1443 1 722 3792
1444 1 723 964
1445 1 723 3792
1446 1 724 964
1447 1 724 3792
1448 1 725 964
1449 1 725 3792
1450 1 726 964
1451 1 726 3792
1452 1 727 964
1453 1 727 3792
1454 1 728 964
1455 1 728 3792
1456 1 729 964
1457 1 729 3792
1458 1 730 964
1459 1 730 3792
1460 1 732 964
1461 1 732 3792
1462 1 733 964
1463 1 733 3792
1464 1 734 964
1465 1 734 3792
1466 1 735 964
1467 1 735 3792
1468 1 736 964
1469 1 736 3792
1470 1 737 964
1471 1 737 3792
1472 1 738 964
1473 1 738 3792
1474 1 739 964
1475 1 739 3792
1476 1 740 964
1477 1 740 3792
1478 1 741 964
1479 1 741 3792
1480 1 742 964
1481 1 742 3792
1482 1 743 964
1483 1 743 3792
1484 1 744 964
1485 1 744 3792
1486 1 745 964
1487 1 745 3792
1488 1 746 964
1489 1 746 3792
1490 1 747 964
1491 1 747 3792
1492 1 748 964
1493 1 748 3792
1494 1 749 964
1495 1 749 3792
1496 1 759 964
1497 1 759 3792
1498 1 760 964
1499 1 760 3792
1500 1 761 964
1501 1 761 3792
1502 1 762 964
1503 1 762 3792
1504 1 763 964
1505 1 763 3792
1506 1 764 964
1507 1 764 3792
1508 1 765 964
1509 1 765 3792
1510 1 766 964
1511 1 766 3792
1512 1 767 964
1513 1 767 3792
1514 1 768 964
1515 1 768 3792
1516 1 769 964
1517 1 769 3792
1518 1 770 964
1519 1 770 3792
1520 1 771 964
1521 1 771 3792
1522 1 772 964
1523 1 772 3792
1524 1 773 964
1525 1 773 3792
1526 1 774 964
1527 1 774 3792
1528 1 775 964
1529 1 775 3792
1530 1 776 964
1531 1 776 3792
1532 1 783 964
1533 1 783 3792
1534 1 784 964
1535 1 784 3792
1536 1 785 964
1537 1 785 3792
1538 1 786 964
1539 1 786 3792
1540 1 787 964
1541 1 787 3792
1542 1 788 964
1543 1 788 3792
1544 1 790 964
1545 1 790 3792
1546 1 791 964
1547 1 791 3792
1548 1 792 964
1549 1 792 3792
1550 1 793 964
1551 1 793 3792
1552 1 794 964
1553 1 794 3792
1554 1 795 964
1555 1 795 3792
1556 1 796 964
1557 1 796 3792
1558 1 797 964
1559 1 797 3792
1560 1 798 964
1561 1 798 3792
1562 1 799 964
1563 1 799 3792
1564 1 800 964
1565 1 800 3792
1566 1 801 964
1567 1 801 3792
1568 1 803 964
1569 1 803 3792
1570 1 804 964
1571 1 804 3792
1572 1 805 964
1573 1 805 3792
1574 1 806 964
1575 1 806 3792
1576 1 807 964
1577 1 807 3792
1578 1 814 964
1579 1 814 3792
1580 1 815 964
1581 1 815 3792
1582 1 816 964
1583 1 816 3792
1584 1 817 964
1585 1 817 3792
1586 1 819 964
1587 1 819 3792
1588 1 820 964
1589 1 820 3792
1590 1 821 964
1591 1 821 3792
1592 1 822 964
1593 1 822 3792
1594 1 823 964
1595 1 823 3792
1596 1 824 964
1597 1 824 3792
1598 1 825 964
1599 1 825 3792
1600 1 826 964
1601 1 826 3792
1602 1 827 964
1603 1 827 3792
1604 1 828 964
1605 1 828 3792
1606 1 1052 859
1607 1 1052 3792
1608 1 1069 859
1609 1 1069 3792
1610 1 847 1069
1611 1 847 3792
1612 1 866 1069
1613 1 866 3792
1614 1 888 1069
1615 1 888 3792
1616 1 907 1069
1617 1 907 3792
1618 1 911 1069
1619 1 911 3792
1620 1 934 1069
1621 1 934 3792
1622 1 959 1069
1623 1 959 3792
1624 1 972 1069
1625 1 972 3792
1626 1 1000 1069
1627 1 1000 3792
1628 1 1012 1069
1629 1 1012 3792
1630 1 1084 859
1631 1 1084 3792
1632 1 935 1084
1633 1 935 3792
1634 1 889 857
1635 1 889 3792
1636 1 999 857
1637 1 999 3792
1638 1 957 999
1639 1 957 3792
1640 1 1057 857
1641 1 1057 3792
1642 1 875 3791
1643 1 875 3792
1644 1 940 875
1645 1 940 3792
1646 1 1094 875
1647 1 1094 3792
1648 1 885 3791
1649 1 885 3792
1650 1 877 885
1651 1 877 3792
1652 1 1072 877
1653 1 1072 3792
1654 1 886 3791
1655 1 886 3792
1656 1 687 886
1657 1 687 3792
1658 1 901 687
1659 1 901 3792
1660 1 985 901
1661 1 985 3792
1662 1 899 886
1663 1 899 3792
1664 1 890 3791
1665 1 890 3792
1666 1 898 3791
1667 1 898 3792
1668 1 843 898
1669 1 843 3792
1670 1 1078 843
1671 1 1078 3792
1672 1 876 898
1673 1 876 3792
1674 1 1007 876
1675 1 1007 3792
1676 1 1037 876
1677 1 1037 3792
1678 1 1038 876
1679 1 1038 3792
1680 1 863 1038
1681 1 863 3792
1682 1 1039 876
1683 1 1039 3792
1684 1 1040 876
1685 1 1040 3792
1686 1 1041 876
1687 1 1041 3792
1688 1 1042 876
1689 1 1042 3792
1690 1 1043 876
1691 1 1043 3792
1692 1 864 1043
1693 1 864 3792
1694 1 884 1043
1695 1 884 3792
1696 1 938 1043
1697 1 938 3792
1698 1 1090 876
1699 1 1090 3792
1700 1 1104 876
1701 1 1104 3792
1702 1 928 1104
1703 1 928 3792
1704 1 1023 1104
1705 1 1023 3792
1706 1 1066 1104
1707 1 1066 3792
1708 1 1105 876
1709 1 1105 3792
1710 1 1106 876
1711 1 1106 3792
1712 1 1107 876
1713 1 1107 3792
1714 1 856 1107
1715 1 856 3792
1716 1 1065 1107
1717 1 1065 3792
1718 1 883 898
1719 1 883 3792
1720 1 952 883
1721 1 952 3792
1722 1 903 898
1723 1 903 3792
1724 1 1050 903
1725 1 1050 3792
1726 1 908 898
1727 1 908 3792
1728 1 962 898
1729 1 962 3792
1730 1 861 962
1731 1 861 3792
1732 1 862 962
1733 1 862 3792
1734 1 965 898
1735 1 965 3792
1736 1 694 965
1737 1 694 3792
1738 1 1100 694
1739 1 1100 3792
1740 1 992 898
1741 1 992 3792
1742 1 994 898
1743 1 994 3792
1744 1 921 994
1745 1 921 3792
1746 1 937 994
1747 1 937 3792
1748 1 950 994
1749 1 950 3792
1750 1 961 994
1751 1 961 3792
1752 1 977 994
1753 1 977 3792
1754 1 1013 977
1755 1 1013 3792
1756 1 1036 994
1757 1 1036 3792
1758 1 1097 898
1759 1 1097 3792
1760 1 868 1097
1761 1 868 3792
1762 1 1024 1097
1763 1 1024 3792
1764 1 1099 898
1765 1 1099 3792
1766 1 873 1099
1767 1 873 3792
1768 1 1060 873
1769 1 1060 3792
1770 1 1102 898
1771 1 1102 3792
1772 1 849 1102
1773 1 849 3792
1774 1 869 1102
1775 1 869 3792
1776 1 881 1102
1777 1 881 3792
1778 1 894 881
1779 1 894 3792
1780 1 960 881
1781 1 960 3792
1782 1 986 881
1783 1 986 3792
1784 1 987 881
1785 1 987 3792
1786 1 1008 881
1787 1 1008 3792
1788 1 912 1102
1789 1 912 3792
1790 1 915 1102
1791 1 915 3792
1792 1 967 1102
1793 1 967 3792
1794 1 1103 898
1795 1 1103 3792
1796 1 909 3791
1797 1 909 3792
1798 1 851 909
1799 1 851 3792
1800 1 870 909
1801 1 870 3792
1802 1 846 870
1803 1 846 3792
1804 1 978 870
1805 1 978 3792
1806 1 887 978
1807 1 887 3792
1808 1 1028 978
1809 1 1028 3792
1810 1 874 909
1811 1 874 3792
1812 1 891 909
1813 1 891 3792
1814 1 893 909
1815 1 893 3792
1816 1 902 909
1817 1 902 3792
1818 1 905 909
1819 1 905 3792
1820 1 913 909
1821 1 913 3792
1822 1 948 909
1823 1 948 3792
1824 1 1046 948
1825 1 1046 3792
1826 1 975 1046
1827 1 975 3792
1828 1 958 909
1829 1 958 3792
1830 1 1010 909
1831 1 1010 3792
1832 1 1014 909
1833 1 1014 3792
1834 1 1016 909
1835 1 1016 3792
1836 1 1022 909
1837 1 1022 3792
1838 1 1030 909
1839 1 1030 3792
1840 1 1034 909
1841 1 1034 3792
1842 1 1035 909
1843 1 1035 3792
1844 1 1045 909
1845 1 1045 3792
1846 1 1051 909
1847 1 1051 3792
1848 1 1068 909
1849 1 1068 3792
1850 1 1077 909
1851 1 1077 3792
1852 1 878 1077
1853 1 878 3792
1854 1 879 878
1855 1 879 3792
1856 1 1085 878
1857 1 1085 3792
1858 1 1081 909
1859 1 1081 3792
1860 1 1096 909
1861 1 1096 3792
1862 1 919 3791
1863 1 919 3792
1864 1 842 919
1865 1 842 3792
1866 1 984 842
1867 1 984 3792
1868 1 904 919
1869 1 904 3792
1870 1 1006 919
1871 1 1006 3792
1872 1 1095 919
1873 1 1095 3792
1874 1 924 1095
1875 1 924 3792
1876 1 925 3791
1877 1 925 3792
1878 1 971 925
1879 1 971 3792
1880 1 974 925
1881 1 974 3792
1882 1 926 3791
1883 1 926 3792
1884 1 969 926
1885 1 969 3792
1886 1 966 969
1887 1 966 3792
1888 1 855 966
1889 1 855 3792
1890 1 943 3791
1891 1 943 3792
1892 1 945 3791
1893 1 945 3792
1894 1 920 945
1895 1 920 3792
1896 1 980 945
1897 1 980 3792
1898 1 1018 980
1899 1 1018 3792
1900 1 990 945
1901 1 990 3792
1902 1 941 990
1903 1 941 3792
1904 1 956 990
1905 1 956 3792
1906 1 1011 990
1907 1 1011 3792
1908 1 1074 990
1909 1 1074 3792
1910 1 1067 945
1911 1 1067 3792
1912 1 1079 945
1913 1 1079 3792
1914 1 1073 1079
1915 1 1073 3792
1916 1 1108 945
1917 1 1108 3792
1918 1 949 3791
1919 1 949 3792
1920 1 910 949
1921 1 910 3792
1922 1 917 949
1923 1 917 3792
1924 1 830 917
1925 1 830 3792
1926 1 989 949
1927 1 989 3792
1928 1 1004 949
1929 1 1004 3792
1930 1 1059 949
1931 1 1059 3792
1932 1 1075 949
1933 1 1075 3792
1934 1 831 1075
1935 1 831 3792
1936 1 845 1075
1937 1 845 3792
1938 1 848 1075
1939 1 848 3792
1940 1 836 848
1941 1 836 3792
1942 1 858 1075
1943 1 858 3792
1944 1 841 858
1945 1 841 3792
1946 1 871 1075
1947 1 871 3792
1948 1 872 1075
1949 1 872 3792
1950 1 833 872
1951 1 833 3792
1952 1 892 1075
1953 1 892 3792
1954 1 838 892
1955 1 838 3792
1956 1 896 1075
1957 1 896 3792
1958 1 897 1075
1959 1 897 3792
1960 1 918 1075
1961 1 918 3792
1962 1 837 918
1963 1 837 3792
1964 1 927 1075
1965 1 927 3792
1966 1 929 1075
1967 1 929 3792
1968 1 839 929
1969 1 839 3792
1970 1 942 1075
1971 1 942 3792
1972 1 951 1075
1973 1 951 3792
1974 1 963 1075
1975 1 963 3792
1976 1 832 963
1977 1 832 3792
1978 1 973 1075
1979 1 973 3792
1980 1 835 973
1981 1 835 3792
1982 1 988 1075
1983 1 988 3792
1984 1 834 988
1985 1 834 3792
1986 1 1003 1075
1987 1 1003 3792
1988 1 1009 1075
1989 1 1009 3792
1990 1 1027 1075
1991 1 1027 3792
1992 1 895 1027
1993 1 895 3792
1994 1 1017 1027
1995 1 1017 3792
1996 1 1031 1075
1997 1 1031 3792
1998 1 840 1031
1999 1 840 3792
2000 1 1080 1075
2001 1 1080 3792
2002 1 1083 1075
2003 1 1083 3792
2004 1 955 3791
2005 1 955 3792
2006 1 923 955
2007 1 923 3792
2008 1 946 923
2009 1 946 3792
2010 1 1047 923
2011 1 1047 3792
2012 1 976 955
2013 1 976 3792
2014 1 1048 976
2015 1 1048 3792
2016 1 1062 955
2017 1 1062 3792
2018 1 968 3791
2019 1 968 3792
2020 1 780 968
2021 1 780 3792
2022 1 751 780
2023 1 751 3792
2024 1 752 780
2025 1 752 3792
2026 1 811 780
2027 1 811 3792
2028 1 829 780
2029 1 829 3792
2030 1 802 968
2031 1 802 3792
2032 1 753 802
2033 1 753 3792
2034 1 758 802
2035 1 758 3792
2036 1 777 802
2037 1 777 3792
2038 1 779 777
2039 1 779 3792
2040 1 809 777
2041 1 809 3792
2042 1 781 802
2043 1 781 3792
2044 1 719 781
2045 1 719 3792
2046 1 731 781
2047 1 731 3792
2048 1 750 781
2049 1 750 3792
2050 1 754 781
2051 1 754 3792
2052 1 755 781
2053 1 755 3792
2054 1 756 781
2055 1 756 3792
2056 1 782 781
2057 1 782 3792
2058 1 789 781
2059 1 789 3792
2060 1 808 781
2061 1 808 3792
2062 1 810 781
2063 1 810 3792
2064 1 812 781
2065 1 812 3792
2066 1 818 781
2067 1 818 3792
2068 1 813 802
2069 1 813 3792
2070 1 757 813
2071 1 757 3792
2072 1 1056 968
2073 1 1056 3792
2074 1 970 3791
2075 1 970 3792
2076 1 979 3791
2077 1 979 3792
2078 1 1070 979
2079 1 1070 3792
2080 1 867 1070
2081 1 867 3792
2082 1 991 3791
2083 1 991 3792
2084 1 906 991
2085 1 906 3792
2086 1 997 3791
2087 1 997 3792
2088 1 1005 3791
2089 1 1005 3792
2090 1 931 1005
2091 1 931 3792
2092 1 914 931
2093 1 914 3792
2094 1 944 1005
2095 1 944 3792
2096 1 996 1005
2097 1 996 3792
2098 1 932 996
2099 1 932 3792
2100 1 1033 1005
2101 1 1033 3792
2102 1 1091 1005
2103 1 1091 3792
2104 1 930 1091
2105 1 930 3792
2106 1 1020 3791
2107 1 1020 3792
2108 1 981 1020
2109 1 981 3792
2110 1 982 1020
2111 1 982 3792
2112 1 852 981
2113 1 852 3792
2114 1 860 981
2115 1 860 3792
2116 1 1001 981
2117 1 1001 3792
2118 1 1025 981
2119 1 1025 3792
2120 1 1076 981
2121 1 1076 3792
2122 1 1093 981
2123 1 1093 3792
2124 1 983 1020
2125 1 983 3792
2126 1 1055 1020
2127 1 1055 3792
2128 1 1086 1020
2129 1 1086 3792
2130 1 939 1086
2131 1 939 3792
2132 1 998 939
2133 1 998 3792
2134 1 1019 939
2135 1 1019 3792
2136 1 1044 939
2137 1 1044 3792
2138 1 1026 3791
2139 1 1026 3792
2140 1 880 1026
2141 1 880 3792
2142 1 1002 1026
2143 1 1002 3792
2144 1 1064 1026
2145 1 1064 3792
2146 1 1029 3791
2147 1 1029 3792
2148 1 916 1029
2149 1 916 3792
2150 1 900 916
2151 1 900 3792
2152 1 844 900
2153 1 844 3792
2154 1 853 900
2155 1 853 3792
2156 1 882 900
2157 1 882 3792
2158 1 947 916
2159 1 947 3792
2160 1 933 947
2161 1 933 3792
2162 1 1032 947
2163 1 1032 3792
2164 1 1049 3791
2165 1 1049 3792
2166 1 1098 1049
2167 1 1098 3792
2168 1 1053 3791
2169 1 1053 3792
2170 1 1063 3791
2171 1 1063 3792
2172 1 1088 3791
2173 1 1088 3792
2174 1 1089 3791
2175 1 1089 3792
2176 1 993 1089
2177 1 993 3792
2178 1 1092 3791
2179 1 1092 3792
2180 1 850 1092
2181 1 850 3792
2182 1 953 1092
2183 1 953 3792
2184 1 1071 953
2185 1 1071 3792
2186 1 1082 953
2187 1 1082 3792
2188 1 954 1092
2189 1 954 3792
2190 1 1015 954
2191 1 1015 3792
2192 1 1061 954
2193 1 1061 3792
2194 1 1114 3791
2195 1 1114 3792
2196 1 2232 778
2197 1 2232 3792
2198 1 2337 778
2199 1 2337 3792
2200 1 2460 778
2201 1 2460 3792
2202 1 1802 688
2203 1 1802 3792
2204 1 2174 1054
2205 1 2174 3792
2206 1 2169 1101
2207 1 2169 3792
2208 1 2233 1101
2209 1 2233 3792
2210 1 2381 1101
2211 1 2381 3792
2212 1 2382 1101
2213 1 2382 3792
2214 1 2383 1101
2215 1 2383 3792
2216 1 2385 1101
2217 1 2385 3792
2218 1 2439 1101
2219 1 2439 3792
2220 1 2441 1101
2221 1 2441 3792
2222 1 2534 1101
2223 1 2534 3792
2224 1 2537 1101
2225 1 2537 3792
2226 1 2538 1101
2227 1 2538 3792
2228 1 2539 1101
2229 1 2539 3792
2230 1 2771 1101
2231 1 2771 3792
2232 1 3190 1101
2233 1 3190 3792
2234 1 3244 1101
2235 1 3244 3792
2236 1 3707 1101
2237 1 3707 3792
2238 1 1115 3791
2239 1 1115 3792
2240 1 3730 689
2241 1 3730 3792
2242 1 1118 690
2243 1 1118 3792
2244 1 1151 691
2245 1 1151 3792
2246 1 1152 691
2247 1 1152 3792
2248 1 1153 691
2249 1 1153 3792
2250 1 1154 691
2251 1 1154 3792
2252 1 1155 691
2253 1 1155 3792
2254 1 1156 691
2255 1 1156 3792
2256 1 1157 691
2257 1 1157 3792
2258 1 1158 691
2259 1 1158 3792
2260 1 1159 691
2261 1 1159 3792
2262 1 1160 691
2263 1 1160 3792
2264 1 1161 691
2265 1 1161 3792
2266 1 1186 691
2267 1 1186 3792
2268 1 1187 691
2269 1 1187 3792
2270 1 1188 691
2271 1 1188 3792
2272 1 1189 691
2273 1 1189 3792
2274 1 1190 691
2275 1 1190 3792
2276 1 1191 691
2277 1 1191 3792
2278 1 1192 691
2279 1 1192 3792
2280 1 1193 691
2281 1 1193 3792
2282 1 1194 691
2283 1 1194 3792
2284 1 1196 691
2285 1 1196 3792
2286 1 1197 691
2287 1 1197 3792
2288 1 1198 691
2289 1 1198 3792
2290 1 1199 691
2291 1 1199 3792
2292 1 1195 692
2293 1 1195 3792
2294 1 1333 690
2295 1 1333 3792
2296 1 1202 3791
2297 1 1202 3792
2298 1 1205 3791
2299 1 1205 3792
2300 1 1334 3791
2301 1 1334 3792
2302 1 1335 3791
2303 1 1335 3792
2304 1 1529 3791
2305 1 1529 3792
2306 1 1536 3791
2307 1 1536 3792
2308 1 1537 3791
2309 1 1537 3792
2310 1 1538 3791
2311 1 1538 3792
2312 1 1539 3791
2313 1 1539 3792
2314 1 1630 3791
2315 1 1630 3792
2316 1 1893 3791
2317 1 1893 3792
2318 1 1927 3791
2319 1 1927 3792
2320 1 1928 3791
2321 1 1928 3792
2322 1 1953 3791
2323 1 1953 3792
2324 1 1911 693
2325 1 1911 3792
2326 1 1912 995
2327 1 1912 3792
2328 1 2198 995
2329 1 2198 3792
2330 1 2245 995
2331 1 2245 3792
2332 1 2247 995
2333 1 2247 3792
2334 1 2363 995
2335 1 2363 3792
2336 1 2364 995
2337 1 2364 3792
2338 1 2419 995
2339 1 2419 3792
2340 1 2562 995
2341 1 2562 3792
2342 1 2737 995
2343 1 2737 3792
2344 1 3030 995
2345 1 3030 3792
2346 1 3031 995
2347 1 3031 3792
2348 1 3208 995
2349 1 3208 3792
2350 1 3323 995
2351 1 3323 3792
2352 1 3437 995
2353 1 3437 3792
2354 1 3449 995
2355 1 3449 3792
2356 1 3450 995
2357 1 3450 3792
2358 1 3460 995
2359 1 3460 3792
2360 1 1109 859
2361 1 1109 3792
2362 1 1366 859
2363 1 1366 3792
2364 1 1369 859
2365 1 1369 3792
2366 1 1461 859
2367 1 1461 3792
2368 1 1870 859
2369 1 1870 3792
2370 1 1869 865
2371 1 1869 3792
2372 1 2202 865
2373 1 2202 3792
2374 1 2212 865
2375 1 2212 3792
2376 1 2458 865
2377 1 2458 3792
2378 1 2752 865
2379 1 2752 3792
2380 1 2753 865
2381 1 2753 3792
2382 1 2754 865
2383 1 2754 3792
2384 1 3149 865
2385 1 3149 3792
2386 1 3150 865
2387 1 3150 3792
2388 1 3151 865
2389 1 3151 3792
2390 1 3153 865
2391 1 3153 3792
2392 1 3195 865
2393 1 3195 3792
2394 1 3196 865
2395 1 3196 3792
2396 1 3197 865
2397 1 3197 3792
2398 1 2323 859
2399 1 2323 3792
2400 1 2176 922
2401 1 2176 3792
2402 1 3155 922
2403 1 3155 3792
2404 1 3500 922
2405 1 3500 3792
2406 1 3468 936
2407 1 3468 3792
2408 1 1214 695
2409 1 1214 3792
2410 1 2606 695
2411 1 2606 3792
2412 1 2678 695
2413 1 2678 3792
2414 1 2848 695
2415 1 2848 3792
2416 1 2920 695
2417 1 2920 3792
2418 1 3349 695
2419 1 3349 3792
2420 1 2160 696
2421 1 2160 3792
2422 1 2612 696
2423 1 2612 3792
2424 1 2684 696
2425 1 2684 3792
2426 1 2854 696
2427 1 2854 3792
2428 1 2926 696
2429 1 2926 3792
2430 1 3355 696
2431 1 3355 3792
2432 1 1216 697
2433 1 1216 3792
2434 1 1248 698
2435 1 1248 3792
2436 1 2589 698
2437 1 2589 3792
2438 1 2656 698
2439 1 2656 3792
2440 1 2831 698
2441 1 2831 3792
2442 1 2898 698
2443 1 2898 3792
2444 1 3332 698
2445 1 3332 3792
2446 1 2786 699
2447 1 2786 3792
2448 1 1213 700
2449 1 1213 3792
2450 1 2636 700
2451 1 2636 3792
2452 1 2712 700
2453 1 2712 3792
2454 1 2878 700
2455 1 2878 3792
2456 1 2954 700
2457 1 2954 3792
2458 1 3379 700
2459 1 3379 3792
2460 1 1215 701
2461 1 1215 3792
2462 1 2603 701
2463 1 2603 3792
2464 1 2672 701
2465 1 2672 3792
2466 1 2845 701
2467 1 2845 3792
2468 1 2914 701
2469 1 2914 3792
2470 1 3346 701
2471 1 3346 3792
2472 1 1290 702
2473 1 1290 3792
2474 1 2669 702
2475 1 2669 3792
2476 1 2911 702
2477 1 2911 3792
2478 1 1285 703
2479 1 1285 3792
2480 1 2676 703
2481 1 2676 3792
2482 1 2918 703
2483 1 2918 3792
2484 1 2466 704
2485 1 2466 3792
2486 1 2675 704
2487 1 2675 3792
2488 1 2917 704
2489 1 2917 3792
2490 1 2796 705
2491 1 2796 3792
2492 1 1253 706
2493 1 1253 3792
2494 1 2690 706
2495 1 2690 3792
2496 1 2932 706
2497 1 2932 3792
2498 1 1250 707
2499 1 1250 3792
2500 1 2618 707
2501 1 2618 3792
2502 1 2693 707
2503 1 2693 3792
2504 1 2860 707
2505 1 2860 3792
2506 1 2935 707
2507 1 2935 3792
2508 1 3361 707
2509 1 3361 3792
2510 1 1255 708
2511 1 1255 3792
2512 1 2633 708
2513 1 2633 3792
2514 1 2709 708
2515 1 2709 3792
2516 1 2875 708
2517 1 2875 3792
2518 1 2951 708
2519 1 2951 3792
2520 1 3376 708
2521 1 3376 3792
2522 1 1524 709
2523 1 1524 3792
2524 1 1525 709
2525 1 1525 3792
2526 1 1526 709
2527 1 1526 3792
2528 1 2614 709
2529 1 2614 3792
2530 1 2686 709
2531 1 2686 3792
2532 1 2856 709
2533 1 2856 3792
2534 1 2928 709
2535 1 2928 3792
2536 1 3357 709
2537 1 3357 3792
2538 1 1256 710
2539 1 1256 3792
2540 1 2629 710
2541 1 2629 3792
2542 1 2705 710
2543 1 2705 3792
2544 1 2871 710
2545 1 2871 3792
2546 1 2947 710
2547 1 2947 3792
2548 1 3372 710
2549 1 3372 3792
2550 1 1251 711
2551 1 1251 3792
2552 1 1257 712
2553 1 1257 3792
2554 1 2688 712
2555 1 2688 3792
2556 1 2930 712
2557 1 2930 3792
2558 1 2798 713
2559 1 2798 3792
2560 1 1561 714
2561 1 1561 3792
2562 1 2605 714
2563 1 2605 3792
2564 1 2677 714
2565 1 2677 3792
2566 1 2847 714
2567 1 2847 3792
2568 1 2919 714
2569 1 2919 3792
2570 1 3348 714
2571 1 3348 3792
2572 1 1291 715
2573 1 1291 3792
2574 1 2632 715
2575 1 2632 3792
2576 1 2708 715
2577 1 2708 3792
2578 1 2874 715
2579 1 2874 3792
2580 1 2950 715
2581 1 2950 3792
2582 1 3375 715
2583 1 3375 3792
2584 1 1249 716
2585 1 1249 3792
2586 1 2724 716
2587 1 2724 3792
2588 1 2966 716
2589 1 2966 3792
2590 1 1252 717
2591 1 1252 3792
2592 1 1258 717
2593 1 1258 3792
2594 1 2599 717
2595 1 2599 3792
2596 1 2667 717
2597 1 2667 3792
2598 1 2841 717
2599 1 2841 3792
2600 1 2909 717
2601 1 2909 3792
2602 1 3342 717
2603 1 3342 3792
2604 1 1254 718
2605 1 1254 3792
2606 1 2595 718
2607 1 2595 3792
2608 1 2663 718
2609 1 2663 3792
2610 1 2837 718
2611 1 2837 3792
2612 1 2905 718
2613 1 2905 3792
2614 1 3338 718
2615 1 3338 3792
2616 1 1295 720
2617 1 1295 3792
2618 1 2641 720
2619 1 2641 3792
2620 1 2717 720
2621 1 2717 3792
2622 1 2883 720
2623 1 2883 3792
2624 1 2959 720
2625 1 2959 3792
2626 1 3384 720
2627 1 3384 3792
2628 1 2203 721
2629 1 2203 3792
2630 1 2642 721
2631 1 2642 3792
2632 1 2718 721
2633 1 2718 3792
2634 1 2884 721
2635 1 2884 3792
2636 1 2960 721
2637 1 2960 3792
2638 1 3385 721
2639 1 3385 3792
2640 1 1217 722
2641 1 1217 3792
2642 1 1330 723
2643 1 1330 3792
2644 1 2592 723
2645 1 2592 3792
2646 1 2660 723
2647 1 2660 3792
2648 1 2834 723
2649 1 2834 3792
2650 1 2902 723
2651 1 2902 3792
2652 1 3335 723
2653 1 3335 3792
2654 1 1294 724
2655 1 1294 3792
2656 1 2604 724
2657 1 2604 3792
2658 1 2674 724
2659 1 2674 3792
2660 1 2846 724
2661 1 2846 3792
2662 1 2916 724
2663 1 2916 3792
2664 1 3347 724
2665 1 3347 3792
2666 1 2799 725
2667 1 2799 3792
2668 1 1297 726
2669 1 1297 3792
2670 1 2607 726
2671 1 2607 3792
2672 1 2679 726
2673 1 2679 3792
2674 1 2849 726
2675 1 2849 3792
2676 1 2921 726
2677 1 2921 3792
2678 1 3350 726
2679 1 3350 3792
2680 1 1299 727
2681 1 1299 3792
2682 1 2625 727
2683 1 2625 3792
2684 1 2701 727
2685 1 2701 3792
2686 1 2867 727
2687 1 2867 3792
2688 1 2943 727
2689 1 2943 3792
2690 1 3368 727
2691 1 3368 3792
2692 1 1298 728
2693 1 1298 3792
2694 1 2591 728
2695 1 2591 3792
2696 1 2659 728
2697 1 2659 3792
2698 1 2833 728
2699 1 2833 3792
2700 1 2901 728
2701 1 2901 3792
2702 1 3334 728
2703 1 3334 3792
2704 1 1293 729
2705 1 1293 3792
2706 1 2673 729
2707 1 2673 3792
2708 1 2915 729
2709 1 2915 3792
2710 1 1296 730
2711 1 1296 3792
2712 1 2602 730
2713 1 2602 3792
2714 1 2671 730
2715 1 2671 3792
2716 1 2844 730
2717 1 2844 3792
2718 1 2913 730
2719 1 2913 3792
2720 1 3345 730
2721 1 3345 3792
2722 1 2797 732
2723 1 2797 3792
2724 1 1389 733
2725 1 1389 3792
2726 1 2648 733
2727 1 2648 3792
2728 1 2725 733
2729 1 2725 3792
2730 1 2890 733
2731 1 2890 3792
2732 1 2967 733
2733 1 2967 3792
2734 1 3391 733
2735 1 3391 3792
2736 1 2802 734
2737 1 2802 3792
2738 1 2787 735
2739 1 2787 3792
2740 1 1420 736
2741 1 1420 3792
2742 1 2597 736
2743 1 2597 3792
2744 1 2665 736
2745 1 2665 3792
2746 1 2839 736
2747 1 2839 3792
2748 1 2907 736
2749 1 2907 3792
2750 1 3340 736
2751 1 3340 3792
2752 1 1426 737
2753 1 1426 3792
2754 1 2657 737
2755 1 2657 3792
2756 1 2899 737
2757 1 2899 3792
2758 1 2369 738
2759 1 2369 3792
2760 1 2647 738
2761 1 2647 3792
2762 1 2723 738
2763 1 2723 3792
2764 1 2889 738
2765 1 2889 3792
2766 1 2965 738
2767 1 2965 3792
2768 1 3390 738
2769 1 3390 3792
2770 1 1422 739
2771 1 1422 3792
2772 1 1559 740
2773 1 1559 3792
2774 1 2635 740
2775 1 2635 3792
2776 1 2711 740
2777 1 2711 3792
2778 1 2877 740
2779 1 2877 3792
2780 1 2953 740
2781 1 2953 3792
2782 1 3378 740
2783 1 3378 3792
2784 1 1560 741
2785 1 1560 3792
2786 1 2588 741
2787 1 2588 3792
2788 1 2655 741
2789 1 2655 3792
2790 1 2830 741
2791 1 2830 3792
2792 1 2897 741
2793 1 2897 3792
2794 1 3331 741
2795 1 3331 3792
2796 1 1421 742
2797 1 1421 3792
2798 1 1457 743
2799 1 1457 3792
2800 1 2621 743
2801 1 2621 3792
2802 1 2696 743
2803 1 2696 3792
2804 1 2863 743
2805 1 2863 3792
2806 1 2938 743
2807 1 2938 3792
2808 1 3364 743
2809 1 3364 3792
2810 1 2788 744
2811 1 2788 3792
2812 1 1425 745
2813 1 1425 3792
2814 1 2598 745
2815 1 2598 3792
2816 1 2666 745
2817 1 2666 3792
2818 1 2840 745
2819 1 2840 3792
2820 1 2908 745
2821 1 2908 3792
2822 1 3341 745
2823 1 3341 3792
2824 1 1567 746
2825 1 1567 3792
2826 1 2608 746
2827 1 2608 3792
2828 1 2680 746
2829 1 2680 3792
2830 1 2850 746
2831 1 2850 3792
2832 1 2922 746
2833 1 2922 3792
2834 1 3351 746
2835 1 3351 3792
2836 1 1424 747
2837 1 1424 3792
2838 1 2585 747
2839 1 2585 3792
2840 1 2651 747
2841 1 2651 3792
2842 1 2827 747
2843 1 2827 3792
2844 1 2893 747
2845 1 2893 3792
2846 1 3328 747
2847 1 3328 3792
2848 1 2803 748
2849 1 2803 3792
2850 1 1423 749
2851 1 1423 3792
2852 1 2616 749
2853 1 2616 3792
2854 1 2689 749
2855 1 2689 3792
2856 1 2858 749
2857 1 2858 3792
2858 1 2931 749
2859 1 2931 3792
2860 1 3359 749
2861 1 3359 3792
2862 1 1480 759
2863 1 1480 3792
2864 1 2594 759
2865 1 2594 3792
2866 1 2662 759
2867 1 2662 3792
2868 1 2836 759
2869 1 2836 3792
2870 1 2904 759
2871 1 2904 3792
2872 1 3337 759
2873 1 3337 3792
2874 1 1483 760
2875 1 1483 3792
2876 1 1486 761
2877 1 1486 3792
2878 1 2654 761
2879 1 2654 3792
2880 1 2896 761
2881 1 2896 3792
2882 1 1490 762
2883 1 1490 3792
2884 1 2601 762
2885 1 2601 3792
2886 1 2670 762
2887 1 2670 3792
2888 1 2843 762
2889 1 2843 3792
2890 1 2912 762
2891 1 2912 3792
2892 1 3344 762
2893 1 3344 3792
2894 1 1488 763
2895 1 1488 3792
2896 1 2619 763
2897 1 2619 3792
2898 1 2694 763
2899 1 2694 3792
2900 1 2861 763
2901 1 2861 3792
2902 1 2936 763
2903 1 2936 3792
2904 1 3362 763
2905 1 3362 3792
2906 1 1482 764
2907 1 1482 3792
2908 1 2691 765
2909 1 2691 3792
2910 1 2745 765
2911 1 2745 3792
2912 1 2933 765
2913 1 2933 3792
2914 1 2790 766
2915 1 2790 3792
2916 1 1557 767
2917 1 1557 3792
2918 1 2646 767
2919 1 2646 3792
2920 1 2722 767
2921 1 2722 3792
2922 1 2888 767
2923 1 2888 3792
2924 1 2964 767
2925 1 2964 3792
2926 1 3389 767
2927 1 3389 3792
2928 1 1485 768
2929 1 1485 3792
2930 1 2640 768
2931 1 2640 3792
2932 1 2716 768
2933 1 2716 3792
2934 1 2882 768
2935 1 2882 3792
2936 1 2958 768
2937 1 2958 3792
2938 1 3383 768
2939 1 3383 3792
2940 1 1489 769
2941 1 1489 3792
2942 1 2643 769
2943 1 2643 3792
2944 1 2719 769
2945 1 2719 3792
2946 1 2885 769
2947 1 2885 3792
2948 1 2961 769
2949 1 2961 3792
2950 1 3386 769
2951 1 3386 3792
2952 1 2727 770
2953 1 2727 3792
2954 1 2969 770
2955 1 2969 3792
2956 1 1491 771
2957 1 1491 3792
2958 1 2630 771
2959 1 2630 3792
2960 1 2706 771
2961 1 2706 3792
2962 1 2872 771
2963 1 2872 3792
2964 1 2948 771
2965 1 2948 3792
2966 1 3373 771
2967 1 3373 3792
2968 1 1558 772
2969 1 1558 3792
2970 1 2611 772
2971 1 2611 3792
2972 1 2683 772
2973 1 2683 3792
2974 1 2853 772
2975 1 2853 3792
2976 1 2925 772
2977 1 2925 3792
2978 1 3354 772
2979 1 3354 3792
2980 1 2791 773
2981 1 2791 3792
2982 1 1487 774
2983 1 1487 3792
2984 1 2637 774
2985 1 2637 3792
2986 1 2713 774
2987 1 2713 3792
2988 1 2879 774
2989 1 2879 3792
2990 1 2955 774
2991 1 2955 3792
2992 1 3380 774
2993 1 3380 3792
2994 1 1481 775
2995 1 1481 3792
2996 1 2631 775
2997 1 2631 3792
2998 1 2707 775
2999 1 2707 3792
3000 1 2873 775
3001 1 2873 3792
3002 1 2949 775
3003 1 2949 3792
3004 1 3374 775
3005 1 3374 3792
3006 1 1484 776
3007 1 1484 3792
3008 1 2645 776
3009 1 2645 3792
3010 1 2721 776
3011 1 2721 3792
3012 1 2887 776
3013 1 2887 3792
3014 1 2963 776
3015 1 2963 3792
3016 1 3388 776
3017 1 3388 3792
3018 1 1209 783
3019 1 1209 3792
3020 1 1596 783
3021 1 1596 3792
3022 1 2626 783
3023 1 2626 3792
3024 1 2702 783
3025 1 2702 3792
3026 1 2868 783
3027 1 2868 3792
3028 1 2944 783
3029 1 2944 3792
3030 1 3105 783
3031 1 3105 3792
3032 1 3369 783
3033 1 3369 3792
3034 1 2794 784
3035 1 2794 3792
3036 1 2793 785
3037 1 2793 3792
3038 1 1803 786
3039 1 1803 3792
3040 1 1597 787
3041 1 1597 3792
3042 1 2638 787
3043 1 2638 3792
3044 1 2714 787
3045 1 2714 3792
3046 1 2880 787
3047 1 2880 3792
3048 1 2956 787
3049 1 2956 3792
3050 1 3381 787
3051 1 3381 3792
3052 1 1210 788
3053 1 1210 3792
3054 1 2586 788
3055 1 2586 3792
3056 1 2652 788
3057 1 2652 3792
3058 1 2828 788
3059 1 2828 3792
3060 1 2894 788
3061 1 2894 3792
3062 1 3329 788
3063 1 3329 3792
3064 1 1690 790
3065 1 1690 3792
3066 1 2587 790
3067 1 2587 3792
3068 1 2653 790
3069 1 2653 3792
3070 1 2829 790
3071 1 2829 3792
3072 1 2895 790
3073 1 2895 3792
3074 1 3330 790
3075 1 3330 3792
3076 1 2628 791
3077 1 2628 3792
3078 1 2704 791
3079 1 2704 3792
3080 1 2870 791
3081 1 2870 3792
3082 1 2946 791
3083 1 2946 3792
3084 1 3154 791
3085 1 3154 3792
3086 1 3371 791
3087 1 3371 3792
3088 1 1692 792
3089 1 1692 3792
3090 1 1691 793
3091 1 1691 3792
3092 1 1790 794
3093 1 1790 3792
3094 1 2634 794
3095 1 2634 3792
3096 1 2710 794
3097 1 2710 3792
3098 1 2876 794
3099 1 2876 3792
3100 1 2952 794
3101 1 2952 3792
3102 1 3377 794
3103 1 3377 3792
3104 1 2795 795
3105 1 2795 3792
3106 1 1694 796
3107 1 1694 3792
3108 1 2627 796
3109 1 2627 3792
3110 1 2703 796
3111 1 2703 3792
3112 1 2869 796
3113 1 2869 3792
3114 1 2945 796
3115 1 2945 3792
3116 1 3370 796
3117 1 3370 3792
3118 1 1725 797
3119 1 1725 3792
3120 1 2600 797
3121 1 2600 3792
3122 1 2668 797
3123 1 2668 3792
3124 1 2842 797
3125 1 2842 3792
3126 1 2910 797
3127 1 2910 3792
3128 1 3343 797
3129 1 3343 3792
3130 1 1759 798
3131 1 1759 3792
3132 1 2615 798
3133 1 2615 3792
3134 1 2687 798
3135 1 2687 3792
3136 1 2857 798
3137 1 2857 3792
3138 1 2929 798
3139 1 2929 3792
3140 1 3358 798
3141 1 3358 3792
3142 1 2789 799
3143 1 2789 3792
3144 1 1791 800
3145 1 1791 3792
3146 1 2590 800
3147 1 2590 3792
3148 1 2658 800
3149 1 2658 3792
3150 1 2832 800
3151 1 2832 3792
3152 1 2900 800
3153 1 2900 3792
3154 1 3333 800
3155 1 3333 3792
3156 1 1693 801
3157 1 1693 3792
3158 1 2620 801
3159 1 2620 3792
3160 1 2695 801
3161 1 2695 3792
3162 1 2862 801
3163 1 2862 3792
3164 1 2937 801
3165 1 2937 3792
3166 1 3363 801
3167 1 3363 3792
3168 1 2644 803
3169 1 2644 3792
3170 1 2720 803
3171 1 2720 3792
3172 1 2886 803
3173 1 2886 3792
3174 1 2962 803
3175 1 2962 3792
3176 1 3242 803
3177 1 3242 3792
3178 1 3387 803
3179 1 3387 3792
3180 1 1868 804
3181 1 1868 3792
3182 1 2617 804
3183 1 2617 3792
3184 1 2692 804
3185 1 2692 3792
3186 1 2859 804
3187 1 2859 3792
3188 1 2934 804
3189 1 2934 3792
3190 1 3360 804
3191 1 3360 3792
3192 1 1837 805
3193 1 1837 3792
3194 1 2700 805
3195 1 2700 3792
3196 1 2942 805
3197 1 2942 3792
3198 1 2801 806
3199 1 2801 3792
3200 1 1836 807
3201 1 1836 3792
3202 1 2622 807
3203 1 2622 3792
3204 1 2697 807
3205 1 2697 3792
3206 1 2864 807
3207 1 2864 3792
3208 1 2939 807
3209 1 2939 3792
3210 1 3365 807
3211 1 3365 3792
3212 1 1211 814
3213 1 1211 3792
3214 1 2649 814
3215 1 2649 3792
3216 1 2726 814
3217 1 2726 3792
3218 1 2891 814
3219 1 2891 3792
3220 1 2968 814
3221 1 2968 3792
3222 1 3392 814
3223 1 3392 3792
3224 1 2051 815
3225 1 2051 3792
3226 1 2596 815
3227 1 2596 3792
3228 1 2664 815
3229 1 2664 3792
3230 1 2838 815
3231 1 2838 3792
3232 1 2906 815
3233 1 2906 3792
3234 1 3339 815
3235 1 3339 3792
3236 1 2804 816
3237 1 2804 3792
3238 1 2053 817
3239 1 2053 3792
3240 1 2623 817
3241 1 2623 3792
3242 1 2698 817
3243 1 2698 3792
3244 1 2865 817
3245 1 2865 3792
3246 1 2940 817
3247 1 2940 3792
3248 1 3366 817
3249 1 3366 3792
3250 1 1212 819
3251 1 1212 3792
3252 1 2593 819
3253 1 2593 3792
3254 1 2661 819
3255 1 2661 3792
3256 1 2835 819
3257 1 2835 3792
3258 1 2903 819
3259 1 2903 3792
3260 1 3336 819
3261 1 3336 3792
3262 1 2085 820
3263 1 2085 3792
3264 1 2609 820
3265 1 2609 3792
3266 1 2681 820
3267 1 2681 3792
3268 1 2851 820
3269 1 2851 3792
3270 1 2923 820
3271 1 2923 3792
3272 1 3352 820
3273 1 3352 3792
3274 1 2086 821
3275 1 2086 3792
3276 1 2785 821
3277 1 2785 3792
3278 1 2792 822
3279 1 2792 3792
3280 1 2624 823
3281 1 2624 3792
3282 1 2699 823
3283 1 2699 3792
3284 1 2866 823
3285 1 2866 3792
3286 1 2941 823
3287 1 2941 3792
3288 1 3367 823
3289 1 3367 3792
3290 1 3716 823
3291 1 3716 3792
3292 1 2089 824
3293 1 2089 3792
3294 1 2639 824
3295 1 2639 3792
3296 1 2715 824
3297 1 2715 3792
3298 1 2881 824
3299 1 2881 3792
3300 1 2957 824
3301 1 2957 3792
3302 1 3382 824
3303 1 3382 3792
3304 1 2090 825
3305 1 2090 3792
3306 1 2610 825
3307 1 2610 3792
3308 1 2682 825
3309 1 2682 3792
3310 1 2852 825
3311 1 2852 3792
3312 1 2924 825
3313 1 2924 3792
3314 1 3353 825
3315 1 3353 3792
3316 1 2800 826
3317 1 2800 3792
3318 1 2088 827
3319 1 2088 3792
3320 1 2613 827
3321 1 2613 3792
3322 1 2685 827
3323 1 2685 3792
3324 1 2855 827
3325 1 2855 3792
3326 1 2927 827
3327 1 2927 3792
3328 1 3356 827
3329 1 3356 3792
3330 1 2087 828
3331 1 2087 3792
3332 1 2584 828
3333 1 2584 3792
3334 1 2650 828
3335 1 2650 3792
3336 1 2826 828
3337 1 2826 3792
3338 1 2892 828
3339 1 2892 3792
3340 1 3327 828
3341 1 3327 3792
3342 1 2161 1052
3343 1 2161 3792
3344 1 3211 1052
3345 1 3211 3792
3346 1 3245 1052
3347 1 3245 3792
3348 1 3503 1052
3349 1 3503 3792
3350 1 2280 847
3351 1 2280 3792
3352 1 2451 847
3353 1 2451 3792
3354 1 2762 847
3355 1 2762 3792
3356 1 2814 847
3357 1 2814 3792
3358 1 3008 847
3359 1 3008 3792
3360 1 3113 847
3361 1 3113 3792
3362 1 3156 847
3363 1 3156 3792
3364 1 3175 847
3365 1 3175 3792
3366 1 3194 847
3367 1 3194 3792
3368 1 3654 847
3369 1 3654 3792
3370 1 2201 1069
3371 1 2201 3792
3372 1 2217 1069
3373 1 2217 3792
3374 1 2521 866
3375 1 2521 3792
3376 1 2545 866
3377 1 2545 3792
3378 1 3260 866
3379 1 3260 3792
3380 1 2278 1069
3381 1 2278 3792
3382 1 2200 888
3383 1 2200 3792
3384 1 2407 888
3385 1 2407 3792
3386 1 2411 888
3387 1 2411 3792
3388 1 2422 888
3389 1 2422 3792
3390 1 2429 888
3391 1 2429 3792
3392 1 3115 888
3393 1 3115 3792
3394 1 3120 888
3395 1 3120 3792
3396 1 3147 888
3397 1 3147 3792
3398 1 3697 888
3399 1 3697 3792
3400 1 3701 888
3401 1 3701 3792
3402 1 3109 907
3403 1 3109 3792
3404 1 3477 907
3405 1 3477 3792
3406 1 3111 911
3407 1 3111 3792
3408 1 3161 911
3409 1 3161 3792
3410 1 3240 911
3411 1 3240 3792
3412 1 3484 911
3413 1 3484 3792
3414 1 2175 934
3415 1 2175 3792
3416 1 2778 934
3417 1 2778 3792
3418 1 2808 934
3419 1 2808 3792
3420 1 3112 934
3421 1 3112 3792
3422 1 3218 934
3423 1 3218 3792
3424 1 3219 934
3425 1 3219 3792
3426 1 3533 934
3427 1 3533 3792
3428 1 2506 1069
3429 1 2506 3792
3430 1 3114 959
3431 1 3114 3792
3432 1 3655 959
3433 1 3655 3792
3434 1 3676 959
3435 1 3676 3792
3436 1 2347 972
3437 1 2347 3792
3438 1 2371 972
3439 1 2371 3792
3440 1 2454 972
3441 1 2454 3792
3442 1 2462 972
3443 1 2462 3792
3444 1 3110 972
3445 1 3110 3792
3446 1 3493 972
3447 1 3493 3792
3448 1 2992 1069
3449 1 2992 3792
3450 1 3006 1069
3451 1 3006 3792
3452 1 3043 1069
3453 1 3043 3792
3454 1 3145 1069
3455 1 3145 3792
3456 1 2420 1000
3457 1 2420 3792
3458 1 3108 1000
3459 1 3108 3792
3460 1 3128 1000
3461 1 3128 3792
3462 1 3259 1000
3463 1 3259 3792
3464 1 3523 1000
3465 1 3523 3792
3466 1 3656 1000
3467 1 3656 3792
3468 1 3696 1000
3469 1 3696 3792
3470 1 3209 1069
3471 1 3209 3792
3472 1 2510 1012
3473 1 2510 3792
3474 1 3116 1012
3475 1 3116 3792
3476 1 3467 1012
3477 1 3467 3792
3478 1 3300 1069
3479 1 3300 3792
3480 1 3466 1069
3481 1 3466 3792
3482 1 3518 1069
3483 1 3518 3792
3484 1 3531 1069
3485 1 3531 3792
3486 1 3703 1069
3487 1 3703 3792
3488 1 2213 935
3489 1 2213 3792
3490 1 2408 935
3491 1 2408 3792
3492 1 2412 935
3493 1 2412 3792
3494 1 2413 935
3495 1 2413 3792
3496 1 2430 935
3497 1 2430 3792
3498 1 3121 935
3499 1 3121 3792
3500 1 1111 889
3501 1 1111 3792
3502 1 1119 889
3503 1 1119 3792
3504 1 1467 889
3505 1 1467 3792
3506 1 3235 889
3507 1 3235 3792
3508 1 3445 889
3509 1 3445 3792
3510 1 3465 889
3511 1 3465 3792
3512 1 3020 957
3513 1 3020 3792
3514 1 2530 1057
3515 1 2530 3792
3516 1 2219 3791
3517 1 2219 3792
3518 1 2220 3791
3519 1 2220 3792
3520 1 2229 3791
3521 1 2229 3792
3522 1 3757 940
3523 1 3757 3792
3524 1 3758 940
3525 1 3758 3792
3526 1 2349 1094
3527 1 2349 3792
3528 1 2350 1094
3529 1 2350 3792
3530 1 2351 1094
3531 1 2351 3792
3532 1 2352 1094
3533 1 2352 3792
3534 1 2813 1094
3535 1 2813 3792
3536 1 3756 1094
3537 1 3756 3792
3538 1 3763 1094
3539 1 3763 3792
3540 1 3768 1094
3541 1 3768 3792
3542 1 3782 1094
3543 1 3782 3792
3544 1 1892 877
3545 1 1892 3792
3546 1 3184 877
3547 1 3184 3792
3548 1 3212 877
3549 1 3212 3792
3550 1 3724 1072
3551 1 3724 3792
3552 1 3679 877
3553 1 3679 3792
3554 1 3731 877
3555 1 3731 3792
3556 1 1116 886
3557 1 1116 3792
3558 1 1878 886
3559 1 1878 3792
3560 1 2253 886
3561 1 2253 3792
3562 1 2316 899
3563 1 2316 3792
3564 1 2344 899
3565 1 2344 3792
3566 1 2578 899
3567 1 2578 3792
3568 1 2434 886
3569 1 2434 3792
3570 1 2442 886
3571 1 2442 3792
3572 1 2452 886
3573 1 2452 3792
3574 1 2463 886
3575 1 2463 3792
3576 1 2465 886
3577 1 2465 3792
3578 1 2991 886
3579 1 2991 3792
3580 1 3247 886
3581 1 3247 3792
3582 1 3254 886
3583 1 3254 3792
3584 1 3492 886
3585 1 3492 3792
3586 1 3536 886
3587 1 3536 3792
3588 1 3599 886
3589 1 3599 3792
3590 1 2191 890
3591 1 2191 3792
3592 1 2192 890
3593 1 2192 3792
3594 1 2193 890
3595 1 2193 3792
3596 1 2194 890
3597 1 2194 3792
3598 1 2195 890
3599 1 2195 3792
3600 1 2775 890
3601 1 2775 3792
3602 1 3086 890
3603 1 3086 3792
3604 1 3735 890
3605 1 3735 3792
3606 1 1874 898
3607 1 1874 3792
3608 1 3002 843
3609 1 3002 3792
3610 1 3004 843
3611 1 3004 3792
3612 1 3302 843
3613 1 3302 3792
3614 1 3398 843
3615 1 3398 3792
3616 1 2310 1078
3617 1 2310 3792
3618 1 2988 1078
3619 1 2988 3792
3620 1 3499 1078
3621 1 3499 3792
3622 1 2142 898
3623 1 2142 3792
3624 1 2143 898
3625 1 2143 3792
3626 1 2758 876
3627 1 2758 3792
3628 1 3118 876
3629 1 3118 3792
3630 1 1925 1007
3631 1 1925 3792
3632 1 3293 1007
3633 1 3293 3792
3634 1 3238 876
3635 1 3238 3792
3636 1 1921 1037
3637 1 1921 3792
3638 1 2360 1037
3639 1 2360 3792
3640 1 3288 1037
3641 1 3288 3792
3642 1 2209 1038
3643 1 2209 3792
3644 1 2210 1038
3645 1 2210 3792
3646 1 2334 1038
3647 1 2334 3792
3648 1 2495 1038
3649 1 2495 3792
3650 1 2496 1038
3651 1 2496 3792
3652 1 2999 1038
3653 1 2999 3792
3654 1 3289 1039
3655 1 3289 3792
3656 1 3407 876
3657 1 3407 3792
3658 1 1922 1041
3659 1 1922 3792
3660 1 3290 1041
3661 1 3290 3792
3662 1 1923 1040
3663 1 1923 3792
3664 1 3291 1040
3665 1 3291 3792
3666 1 1799 1042
3667 1 1799 3792
3668 1 1924 1042
3669 1 1924 3792
3670 1 1929 1042
3671 1 1929 3792
3672 1 3222 1042
3673 1 3222 3792
3674 1 3292 1042
3675 1 3292 3792
3676 1 3412 1042
3677 1 3412 3792
3678 1 3413 876
3679 1 3413 3792
3680 1 1930 1043
3681 1 1930 3792
3682 1 2447 1043
3683 1 2447 3792
3684 1 3032 1043
3685 1 3032 3792
3686 1 3287 1043
3687 1 3287 3792
3688 1 3428 876
3689 1 3428 3792
3690 1 3429 876
3691 1 3429 3792
3692 1 3430 876
3693 1 3430 3792
3694 1 3431 876
3695 1 3431 3792
3696 1 3432 876
3697 1 3432 3792
3698 1 3433 876
3699 1 3433 3792
3700 1 1527 1090
3701 1 1527 3792
3702 1 1916 1090
3703 1 1916 3792
3704 1 3264 1090
3705 1 3264 3792
3706 1 3669 1090
3707 1 3669 3792
3708 1 3740 876
3709 1 3740 3792
3710 1 3741 876
3711 1 3741 3792
3712 1 3743 876
3713 1 3743 3792
3714 1 3744 876
3715 1 3744 3792
3716 1 3745 876
3717 1 3745 3792
3718 1 3746 876
3719 1 3746 3792
3720 1 3747 876
3721 1 3747 3792
3722 1 3748 876
3723 1 3748 3792
3724 1 3749 876
3725 1 3749 3792
3726 1 3750 876
3727 1 3750 3792
3728 1 3753 876
3729 1 3753 3792
3730 1 3754 876
3731 1 3754 3792
3732 1 1876 1104
3733 1 1876 3792
3734 1 2179 1104
3735 1 2179 3792
3736 1 3035 1104
3737 1 3035 3792
3738 1 3760 876
3739 1 3760 3792
3740 1 3761 876
3741 1 3761 3792
3742 1 2353 1105
3743 1 2353 3792
3744 1 2354 1105
3745 1 2354 3792
3746 1 3764 876
3747 1 3764 3792
3748 1 3765 876
3749 1 3765 3792
3750 1 2177 1106
3751 1 2177 3792
3752 1 3033 1106
3753 1 3033 3792
3754 1 3774 876
3755 1 3774 3792
3756 1 3775 876
3757 1 3775 3792
3758 1 3776 876
3759 1 3776 3792
3760 1 3777 876
3761 1 3777 3792
3762 1 2178 1107
3763 1 2178 3792
3764 1 2375 1107
3765 1 2375 3792
3766 1 2376 1107
3767 1 2376 3792
3768 1 3034 1107
3769 1 3034 3792
3770 1 3783 876
3771 1 3783 3792
3772 1 3784 876
3773 1 3784 3792
3774 1 3785 876
3775 1 3785 3792
3776 1 3786 876
3777 1 3786 3792
3778 1 3787 876
3779 1 3787 3792
3780 1 3788 876
3781 1 3788 3792
3782 1 1918 952
3783 1 1918 3792
3784 1 3284 952
3785 1 3284 3792
3786 1 1540 1050
3787 1 1540 3792
3788 1 1541 1050
3789 1 1541 3792
3790 1 1542 1050
3791 1 1542 3792
3792 1 1543 1050
3793 1 1543 3792
3794 1 1544 1050
3795 1 1544 3792
3796 1 1545 1050
3797 1 1545 3792
3798 1 1546 1050
3799 1 1546 3792
3800 1 1547 1050
3801 1 1547 3792
3802 1 1548 1050
3803 1 1548 3792
3804 1 1549 1050
3805 1 1549 3792
3806 1 1550 1050
3807 1 1550 3792
3808 1 1551 1050
3809 1 1551 3792
3810 1 1552 1050
3811 1 1552 3792
3812 1 1553 1050
3813 1 1553 3792
3814 1 1554 1050
3815 1 1554 3792
3816 1 1555 1050
3817 1 1555 3792
3818 1 1571 1050
3819 1 1571 3792
3820 1 1578 1050
3821 1 1578 3792
3822 1 1583 1050
3823 1 1583 3792
3824 1 1588 1050
3825 1 1588 3792
3826 1 1635 1050
3827 1 1635 3792
3828 1 1642 1050
3829 1 1642 3792
3830 1 1647 1050
3831 1 1647 3792
3832 1 1652 1050
3833 1 1652 3792
3834 1 3189 1050
3835 1 3189 3792
3836 1 1926 908
3837 1 1926 3792
3838 1 2402 908
3839 1 2402 3792
3840 1 2403 908
3841 1 2403 3792
3842 1 2807 908
3843 1 2807 3792
3844 1 3294 908
3845 1 3294 3792
3846 1 3658 908
3847 1 3658 3792
3848 1 3659 908
3849 1 3659 3792
3850 1 3660 908
3851 1 3660 3792
3852 1 3661 908
3853 1 3661 3792
3854 1 1919 861
3855 1 1919 3792
3856 1 3285 861
3857 1 3285 3792
3858 1 1920 862
3859 1 1920 3792
3860 1 3286 862
3861 1 3286 3792
3862 1 1758 694
3863 1 1758 3792
3864 1 1877 694
3865 1 1877 3792
3866 1 2443 694
3867 1 2443 3792
3868 1 3087 992
3869 1 3087 3792
3870 1 1871 994
3871 1 1871 3792
3872 1 3125 921
3873 1 3125 3792
3874 1 3126 921
3875 1 3126 3792
3876 1 3142 921
3877 1 3142 3792
3878 1 3141 937
3879 1 3141 3792
3880 1 1873 950
3881 1 1873 3792
3882 1 2418 950
3883 1 2418 3792
3884 1 2511 950
3885 1 2511 3792
3886 1 2989 950
3887 1 2989 3792
3888 1 2990 950
3889 1 2990 3792
3890 1 3692 950
3891 1 3692 3792
3892 1 3693 950
3893 1 3693 3792
3894 1 3694 950
3895 1 3694 3792
3896 1 1872 961
3897 1 1872 3792
3898 1 2365 961
3899 1 2365 3792
3900 1 2366 961
3901 1 2366 3792
3902 1 2499 961
3903 1 2499 3792
3904 1 2746 961
3905 1 2746 3792
3906 1 2747 961
3907 1 2747 3792
3908 1 3024 961
3909 1 3024 3792
3910 1 3025 961
3911 1 3025 3792
3912 1 3026 961
3913 1 3026 3792
3914 1 3027 961
3915 1 3027 3792
3916 1 3028 961
3917 1 3028 3792
3918 1 3261 961
3919 1 3261 3792
3920 1 3262 961
3921 1 3262 3792
3922 1 3504 961
3923 1 3504 3792
3924 1 2303 977
3925 1 2303 3792
3926 1 2304 977
3927 1 2304 3792
3928 1 2305 977
3929 1 2305 3792
3930 1 2306 977
3931 1 2306 3792
3932 1 2307 977
3933 1 2307 3792
3934 1 2308 977
3935 1 2308 3792
3936 1 2309 977
3937 1 2309 3792
3938 1 3003 994
3939 1 3003 3792
3940 1 3095 994
3941 1 3095 3792
3942 1 3097 994
3943 1 3097 3792
3944 1 2979 1036
3945 1 2979 3792
3946 1 3268 868
3947 1 3268 3792
3948 1 3394 868
3949 1 3394 3792
3950 1 1206 1024
3951 1 1206 3792
3952 1 1220 1102
3953 1 1220 3792
3954 1 1223 1102
3955 1 1223 3792
3956 1 1228 1102
3957 1 1228 3792
3958 1 1229 1102
3959 1 1229 3792
3960 1 1231 1102
3961 1 1231 3792
3962 1 1233 1102
3963 1 1233 3792
3964 1 1235 1102
3965 1 1235 3792
3966 1 1237 1102
3967 1 1237 3792
3968 1 1262 1102
3969 1 1262 3792
3970 1 1264 1102
3971 1 1264 3792
3972 1 1269 1102
3973 1 1269 3792
3974 1 1270 1102
3975 1 1270 3792
3976 1 1273 1102
3977 1 1273 3792
3978 1 1274 1102
3979 1 1274 3792
3980 1 1276 1102
3981 1 1276 3792
3982 1 1278 1102
3983 1 1278 3792
3984 1 1303 1102
3985 1 1303 3792
3986 1 1305 1102
3987 1 1305 3792
3988 1 1309 1102
3989 1 1309 3792
3990 1 1311 1102
3991 1 1311 3792
3992 1 1314 1102
3993 1 1314 3792
3994 1 1315 1102
3995 1 1315 3792
3996 1 1316 1102
3997 1 1316 3792
3998 1 1319 1102
3999 1 1319 3792
4000 1 1339 1102
4001 1 1339 3792
4002 1 1341 1102
4003 1 1341 3792
4004 1 1345 1102
4005 1 1345 3792
4006 1 1347 1102
4007 1 1347 3792
4008 1 1350 1102
4009 1 1350 3792
4010 1 1351 1102
4011 1 1351 3792
4012 1 1352 1102
4013 1 1352 3792
4014 1 1355 1102
4015 1 1355 3792
4016 1 1391 1102
4017 1 1391 3792
4018 1 1393 1102
4019 1 1393 3792
4020 1 1398 1102
4021 1 1398 3792
4022 1 1399 1102
4023 1 1399 3792
4024 1 1402 1102
4025 1 1402 3792
4026 1 1403 1102
4027 1 1403 3792
4028 1 1405 1102
4029 1 1405 3792
4030 1 1407 1102
4031 1 1407 3792
4032 1 1430 1102
4033 1 1430 3792
4034 1 1432 1102
4035 1 1432 3792
4036 1 1436 1102
4037 1 1436 3792
4038 1 1438 1102
4039 1 1438 3792
4040 1 1440 1102
4041 1 1440 3792
4042 1 1442 1102
4043 1 1442 3792
4044 1 1444 1102
4045 1 1444 3792
4046 1 1446 1102
4047 1 1446 3792
4048 1 1493 1102
4049 1 1493 3792
4050 1 1495 1102
4051 1 1495 3792
4052 1 1500 1102
4053 1 1500 3792
4054 1 1501 1102
4055 1 1501 3792
4056 1 1502 1102
4057 1 1502 3792
4058 1 1505 1102
4059 1 1505 3792
4060 1 1508 1102
4061 1 1508 3792
4062 1 1509 1102
4063 1 1509 3792
4064 1 1569 1102
4065 1 1569 3792
4066 1 1572 1102
4067 1 1572 3792
4068 1 1576 1102
4069 1 1576 3792
4070 1 1579 1102
4071 1 1579 3792
4072 1 1581 1102
4073 1 1581 3792
4074 1 1584 1102
4075 1 1584 3792
4076 1 1586 1102
4077 1 1586 3792
4078 1 1589 1102
4079 1 1589 3792
4080 1 1600 1102
4081 1 1600 3792
4082 1 1601 1102
4083 1 1601 3792
4084 1 1604 1102
4085 1 1604 3792
4086 1 1607 1102
4087 1 1607 3792
4088 1 1609 1102
4089 1 1609 3792
4090 1 1611 1102
4091 1 1611 3792
4092 1 1613 1102
4093 1 1613 3792
4094 1 1615 1102
4095 1 1615 3792
4096 1 1633 1102
4097 1 1633 3792
4098 1 1636 1102
4099 1 1636 3792
4100 1 1640 1102
4101 1 1640 3792
4102 1 1643 1102
4103 1 1643 3792
4104 1 1644 1102
4105 1 1644 3792
4106 1 1648 1102
4107 1 1648 3792
4108 1 1650 1102
4109 1 1650 3792
4110 1 1653 1102
4111 1 1653 3792
4112 1 1661 1102
4113 1 1661 3792
4114 1 1663 1102
4115 1 1663 3792
4116 1 1667 1102
4117 1 1667 3792
4118 1 1669 1102
4119 1 1669 3792
4120 1 1671 1102
4121 1 1671 3792
4122 1 1673 1102
4123 1 1673 3792
4124 1 1675 1102
4125 1 1675 3792
4126 1 1677 1102
4127 1 1677 3792
4128 1 1697 1102
4129 1 1697 3792
4130 1 1700 1102
4131 1 1700 3792
4132 1 1704 1102
4133 1 1704 3792
4134 1 1706 1102
4135 1 1706 3792
4136 1 1708 1102
4137 1 1708 3792
4138 1 1710 1102
4139 1 1710 3792
4140 1 1712 1102
4141 1 1712 3792
4142 1 1714 1102
4143 1 1714 3792
4144 1 1727 1102
4145 1 1727 3792
4146 1 1729 1102
4147 1 1729 3792
4148 1 1733 1102
4149 1 1733 3792
4150 1 1735 1102
4151 1 1735 3792
4152 1 1737 1102
4153 1 1737 3792
4154 1 1739 1102
4155 1 1739 3792
4156 1 1741 1102
4157 1 1741 3792
4158 1 1743 1102
4159 1 1743 3792
4160 1 1764 1102
4161 1 1764 3792
4162 1 1765 1102
4163 1 1765 3792
4164 1 1770 1102
4165 1 1770 3792
4166 1 1771 1102
4167 1 1771 3792
4168 1 1772 1102
4169 1 1772 3792
4170 1 1775 1102
4171 1 1775 3792
4172 1 1776 1102
4173 1 1776 3792
4174 1 1779 1102
4175 1 1779 3792
4176 1 1808 1102
4177 1 1808 3792
4178 1 1809 1102
4179 1 1809 3792
4180 1 1812 1102
4181 1 1812 3792
4182 1 1815 1102
4183 1 1815 3792
4184 1 1817 1102
4185 1 1817 3792
4186 1 1819 1102
4187 1 1819 3792
4188 1 1821 1102
4189 1 1821 3792
4190 1 1823 1102
4191 1 1823 3792
4192 1 1841 1102
4193 1 1841 3792
4194 1 1843 1102
4195 1 1843 3792
4196 1 1847 1102
4197 1 1847 3792
4198 1 1849 1102
4199 1 1849 3792
4200 1 1851 1102
4201 1 1851 3792
4202 1 1853 1102
4203 1 1853 3792
4204 1 1856 1102
4205 1 1856 3792
4206 1 1857 1102
4207 1 1857 3792
4208 1 1959 1102
4209 1 1959 3792
4210 1 1961 1102
4211 1 1961 3792
4212 1 1965 1102
4213 1 1965 3792
4214 1 1967 1102
4215 1 1967 3792
4216 1 1970 1102
4217 1 1970 3792
4218 1 1971 1102
4219 1 1971 3792
4220 1 1973 1102
4221 1 1973 3792
4222 1 1975 1102
4223 1 1975 3792
4224 1 1988 1102
4225 1 1988 3792
4226 1 1991 1102
4227 1 1991 3792
4228 1 1995 1102
4229 1 1995 3792
4230 1 1997 1102
4231 1 1997 3792
4232 1 1999 1102
4233 1 1999 3792
4234 1 2001 1102
4235 1 2001 3792
4236 1 2003 1102
4237 1 2003 3792
4238 1 2005 1102
4239 1 2005 3792
4240 1 2019 1102
4241 1 2019 3792
4242 1 2021 1102
4243 1 2021 3792
4244 1 2024 1102
4245 1 2024 3792
4246 1 2027 1102
4247 1 2027 3792
4248 1 2029 1102
4249 1 2029 3792
4250 1 2031 1102
4251 1 2031 3792
4252 1 2033 1102
4253 1 2033 3792
4254 1 2035 1102
4255 1 2035 3792
4256 1 2055 1102
4257 1 2055 3792
4258 1 2057 1102
4259 1 2057 3792
4260 1 2062 1102
4261 1 2062 3792
4262 1 2063 1102
4263 1 2063 3792
4264 1 2065 1102
4265 1 2065 3792
4266 1 2067 1102
4267 1 2067 3792
4268 1 2068 1102
4269 1 2068 3792
4270 1 2071 1102
4271 1 2071 3792
4272 1 2091 1102
4273 1 2091 3792
4274 1 2094 1102
4275 1 2094 3792
4276 1 2098 1102
4277 1 2098 3792
4278 1 2100 1102
4279 1 2100 3792
4280 1 2101 1102
4281 1 2101 3792
4282 1 2104 1102
4283 1 2104 3792
4284 1 2106 1102
4285 1 2106 3792
4286 1 2108 1102
4287 1 2108 3792
4288 1 1954 849
4289 1 1954 3792
4290 1 2338 849
4291 1 2338 3792
4292 1 2339 849
4293 1 2339 3792
4294 1 2548 849
4295 1 2548 3792
4296 1 3256 849
4297 1 3256 3792
4298 1 3517 849
4299 1 3517 3792
4300 1 1221 869
4301 1 1221 3792
4302 1 1226 869
4303 1 1226 3792
4304 1 1230 869
4305 1 1230 3792
4306 1 1234 869
4307 1 1234 3792
4308 1 1261 869
4309 1 1261 3792
4310 1 1267 869
4311 1 1267 3792
4312 1 1271 869
4313 1 1271 3792
4314 1 1275 869
4315 1 1275 3792
4316 1 1302 869
4317 1 1302 3792
4318 1 1308 869
4319 1 1308 3792
4320 1 1312 869
4321 1 1312 3792
4322 1 1317 869
4323 1 1317 3792
4324 1 1338 869
4325 1 1338 3792
4326 1 1344 869
4327 1 1344 3792
4328 1 1348 869
4329 1 1348 3792
4330 1 1353 869
4331 1 1353 3792
4332 1 1390 869
4333 1 1390 3792
4334 1 1396 869
4335 1 1396 3792
4336 1 1400 869
4337 1 1400 3792
4338 1 1404 869
4339 1 1404 3792
4340 1 1429 869
4341 1 1429 3792
4342 1 1435 869
4343 1 1435 3792
4344 1 1439 869
4345 1 1439 3792
4346 1 1443 869
4347 1 1443 3792
4348 1 1492 869
4349 1 1492 3792
4350 1 1498 869
4351 1 1498 3792
4352 1 1503 869
4353 1 1503 3792
4354 1 1506 869
4355 1 1506 3792
4356 1 1568 869
4357 1 1568 3792
4358 1 1575 869
4359 1 1575 3792
4360 1 1580 869
4361 1 1580 3792
4362 1 1585 869
4363 1 1585 3792
4364 1 1598 869
4365 1 1598 3792
4366 1 1605 869
4367 1 1605 3792
4368 1 1608 869
4369 1 1608 3792
4370 1 1612 869
4371 1 1612 3792
4372 1 1632 869
4373 1 1632 3792
4374 1 1639 869
4375 1 1639 3792
4376 1 1645 869
4377 1 1645 3792
4378 1 1649 869
4379 1 1649 3792
4380 1 1660 869
4381 1 1660 3792
4382 1 1666 869
4383 1 1666 3792
4384 1 1670 869
4385 1 1670 3792
4386 1 1674 869
4387 1 1674 3792
4388 1 1698 869
4389 1 1698 3792
4390 1 1703 869
4391 1 1703 3792
4392 1 1707 869
4393 1 1707 3792
4394 1 1711 869
4395 1 1711 3792
4396 1 1726 869
4397 1 1726 3792
4398 1 1732 869
4399 1 1732 3792
4400 1 1736 869
4401 1 1736 3792
4402 1 1740 869
4403 1 1740 3792
4404 1 1762 869
4405 1 1762 3792
4406 1 1768 869
4407 1 1768 3792
4408 1 1773 869
4409 1 1773 3792
4410 1 1777 869
4411 1 1777 3792
4412 1 1806 869
4413 1 1806 3792
4414 1 1813 869
4415 1 1813 3792
4416 1 1816 869
4417 1 1816 3792
4418 1 1820 869
4419 1 1820 3792
4420 1 1840 869
4421 1 1840 3792
4422 1 1846 869
4423 1 1846 3792
4424 1 1850 869
4425 1 1850 3792
4426 1 1854 869
4427 1 1854 3792
4428 1 1958 869
4429 1 1958 3792
4430 1 1964 869
4431 1 1964 3792
4432 1 1968 869
4433 1 1968 3792
4434 1 1972 869
4435 1 1972 3792
4436 1 1989 869
4437 1 1989 3792
4438 1 1994 869
4439 1 1994 3792
4440 1 1998 869
4441 1 1998 3792
4442 1 2002 869
4443 1 2002 3792
4444 1 2018 869
4445 1 2018 3792
4446 1 2025 869
4447 1 2025 3792
4448 1 2028 869
4449 1 2028 3792
4450 1 2032 869
4451 1 2032 3792
4452 1 2054 869
4453 1 2054 3792
4454 1 2060 869
4455 1 2060 3792
4456 1 2064 869
4457 1 2064 3792
4458 1 2069 869
4459 1 2069 3792
4460 1 2092 869
4461 1 2092 3792
4462 1 2097 869
4463 1 2097 3792
4464 1 2102 869
4465 1 2102 3792
4466 1 2105 869
4467 1 2105 3792
4468 1 2225 869
4469 1 2225 3792
4470 1 2414 1102
4471 1 2414 3792
4472 1 2415 1102
4473 1 2415 3792
4474 1 1222 912
4475 1 1222 3792
4476 1 1227 912
4477 1 1227 3792
4478 1 1232 912
4479 1 1232 3792
4480 1 1236 912
4481 1 1236 3792
4482 1 1263 912
4483 1 1263 3792
4484 1 1268 912
4485 1 1268 3792
4486 1 1272 912
4487 1 1272 3792
4488 1 1277 912
4489 1 1277 3792
4490 1 1304 912
4491 1 1304 3792
4492 1 1310 912
4493 1 1310 3792
4494 1 1313 912
4495 1 1313 3792
4496 1 1318 912
4497 1 1318 3792
4498 1 1340 912
4499 1 1340 3792
4500 1 1346 912
4501 1 1346 3792
4502 1 1349 912
4503 1 1349 3792
4504 1 1354 912
4505 1 1354 3792
4506 1 1392 912
4507 1 1392 3792
4508 1 1397 912
4509 1 1397 3792
4510 1 1401 912
4511 1 1401 3792
4512 1 1406 912
4513 1 1406 3792
4514 1 1431 912
4515 1 1431 3792
4516 1 1437 912
4517 1 1437 3792
4518 1 1441 912
4519 1 1441 3792
4520 1 1445 912
4521 1 1445 3792
4522 1 1494 912
4523 1 1494 3792
4524 1 1499 912
4525 1 1499 3792
4526 1 1504 912
4527 1 1504 3792
4528 1 1507 912
4529 1 1507 3792
4530 1 1570 912
4531 1 1570 3792
4532 1 1577 912
4533 1 1577 3792
4534 1 1582 912
4535 1 1582 3792
4536 1 1587 912
4537 1 1587 3792
4538 1 1599 912
4539 1 1599 3792
4540 1 1606 912
4541 1 1606 3792
4542 1 1610 912
4543 1 1610 3792
4544 1 1614 912
4545 1 1614 3792
4546 1 1634 912
4547 1 1634 3792
4548 1 1641 912
4549 1 1641 3792
4550 1 1646 912
4551 1 1646 3792
4552 1 1651 912
4553 1 1651 3792
4554 1 1662 912
4555 1 1662 3792
4556 1 1668 912
4557 1 1668 3792
4558 1 1672 912
4559 1 1672 3792
4560 1 1676 912
4561 1 1676 3792
4562 1 1699 912
4563 1 1699 3792
4564 1 1705 912
4565 1 1705 3792
4566 1 1709 912
4567 1 1709 3792
4568 1 1713 912
4569 1 1713 3792
4570 1 1728 912
4571 1 1728 3792
4572 1 1734 912
4573 1 1734 3792
4574 1 1738 912
4575 1 1738 3792
4576 1 1742 912
4577 1 1742 3792
4578 1 1763 912
4579 1 1763 3792
4580 1 1769 912
4581 1 1769 3792
4582 1 1774 912
4583 1 1774 3792
4584 1 1778 912
4585 1 1778 3792
4586 1 1807 912
4587 1 1807 3792
4588 1 1814 912
4589 1 1814 3792
4590 1 1818 912
4591 1 1818 3792
4592 1 1822 912
4593 1 1822 3792
4594 1 1842 912
4595 1 1842 3792
4596 1 1848 912
4597 1 1848 3792
4598 1 1852 912
4599 1 1852 3792
4600 1 1855 912
4601 1 1855 3792
4602 1 1960 912
4603 1 1960 3792
4604 1 1966 912
4605 1 1966 3792
4606 1 1969 912
4607 1 1969 3792
4608 1 1974 912
4609 1 1974 3792
4610 1 1990 912
4611 1 1990 3792
4612 1 1996 912
4613 1 1996 3792
4614 1 2000 912
4615 1 2000 3792
4616 1 2004 912
4617 1 2004 3792
4618 1 2020 912
4619 1 2020 3792
4620 1 2026 912
4621 1 2026 3792
4622 1 2030 912
4623 1 2030 3792
4624 1 2034 912
4625 1 2034 3792
4626 1 2056 912
4627 1 2056 3792
4628 1 2061 912
4629 1 2061 3792
4630 1 2066 912
4631 1 2066 3792
4632 1 2070 912
4633 1 2070 3792
4634 1 2093 912
4635 1 2093 3792
4636 1 2099 912
4637 1 2099 3792
4638 1 2103 912
4639 1 2103 3792
4640 1 2107 912
4641 1 2107 3792
4642 1 2208 912
4643 1 2208 3792
4644 1 2424 1102
4645 1 2424 3792
4646 1 3283 915
4647 1 3283 3792
4648 1 1218 967
4649 1 1218 3792
4650 1 1224 967
4651 1 1224 3792
4652 1 1238 967
4653 1 1238 3792
4654 1 1240 967
4655 1 1240 3792
4656 1 1242 967
4657 1 1242 3792
4658 1 1244 967
4659 1 1244 3792
4660 1 1246 967
4661 1 1246 3792
4662 1 1259 967
4663 1 1259 3792
4664 1 1265 967
4665 1 1265 3792
4666 1 1279 967
4667 1 1279 3792
4668 1 1281 967
4669 1 1281 3792
4670 1 1283 967
4671 1 1283 3792
4672 1 1286 967
4673 1 1286 3792
4674 1 1288 967
4675 1 1288 3792
4676 1 1300 967
4677 1 1300 3792
4678 1 1306 967
4679 1 1306 3792
4680 1 1320 967
4681 1 1320 3792
4682 1 1322 967
4683 1 1322 3792
4684 1 1324 967
4685 1 1324 3792
4686 1 1326 967
4687 1 1326 3792
4688 1 1328 967
4689 1 1328 3792
4690 1 1336 967
4691 1 1336 3792
4692 1 1342 967
4693 1 1342 3792
4694 1 1356 967
4695 1 1356 3792
4696 1 1358 967
4697 1 1358 3792
4698 1 1360 967
4699 1 1360 3792
4700 1 1362 967
4701 1 1362 3792
4702 1 1364 967
4703 1 1364 3792
4704 1 1394 967
4705 1 1394 3792
4706 1 1408 967
4707 1 1408 3792
4708 1 1410 967
4709 1 1410 3792
4710 1 1412 967
4711 1 1412 3792
4712 1 1414 967
4713 1 1414 3792
4714 1 1416 967
4715 1 1416 3792
4716 1 1418 967
4717 1 1418 3792
4718 1 1427 967
4719 1 1427 3792
4720 1 1433 967
4721 1 1433 3792
4722 1 1447 967
4723 1 1447 3792
4724 1 1449 967
4725 1 1449 3792
4726 1 1451 967
4727 1 1451 3792
4728 1 1453 967
4729 1 1453 3792
4730 1 1455 967
4731 1 1455 3792
4732 1 1496 967
4733 1 1496 3792
4734 1 1510 967
4735 1 1510 3792
4736 1 1512 967
4737 1 1512 3792
4738 1 1514 967
4739 1 1514 3792
4740 1 1516 967
4741 1 1516 3792
4742 1 1518 967
4743 1 1518 3792
4744 1 1520 967
4745 1 1520 3792
4746 1 1573 967
4747 1 1573 3792
4748 1 1590 967
4749 1 1590 3792
4750 1 1592 967
4751 1 1592 3792
4752 1 1594 967
4753 1 1594 3792
4754 1 1602 967
4755 1 1602 3792
4756 1 1616 967
4757 1 1616 3792
4758 1 1618 967
4759 1 1618 3792
4760 1 1620 967
4761 1 1620 3792
4762 1 1622 967
4763 1 1622 3792
4764 1 1624 967
4765 1 1624 3792
4766 1 1626 967
4767 1 1626 3792
4768 1 1637 967
4769 1 1637 3792
4770 1 1654 967
4771 1 1654 3792
4772 1 1656 967
4773 1 1656 3792
4774 1 1658 967
4775 1 1658 3792
4776 1 1664 967
4777 1 1664 3792
4778 1 1678 967
4779 1 1678 3792
4780 1 1680 967
4781 1 1680 3792
4782 1 1682 967
4783 1 1682 3792
4784 1 1684 967
4785 1 1684 3792
4786 1 1686 967
4787 1 1686 3792
4788 1 1688 967
4789 1 1688 3792
4790 1 1695 967
4791 1 1695 3792
4792 1 1701 967
4793 1 1701 3792
4794 1 1715 967
4795 1 1715 3792
4796 1 1717 967
4797 1 1717 3792
4798 1 1719 967
4799 1 1719 3792
4800 1 1721 967
4801 1 1721 3792
4802 1 1723 967
4803 1 1723 3792
4804 1 1730 967
4805 1 1730 3792
4806 1 1744 967
4807 1 1744 3792
4808 1 1746 967
4809 1 1746 3792
4810 1 1748 967
4811 1 1748 3792
4812 1 1750 967
4813 1 1750 3792
4814 1 1752 967
4815 1 1752 3792
4816 1 1754 967
4817 1 1754 3792
4818 1 1760 967
4819 1 1760 3792
4820 1 1766 967
4821 1 1766 3792
4822 1 1780 967
4823 1 1780 3792
4824 1 1782 967
4825 1 1782 3792
4826 1 1784 967
4827 1 1784 3792
4828 1 1786 967
4829 1 1786 3792
4830 1 1788 967
4831 1 1788 3792
4832 1 1804 967
4833 1 1804 3792
4834 1 1810 967
4835 1 1810 3792
4836 1 1824 967
4837 1 1824 3792
4838 1 1826 967
4839 1 1826 3792
4840 1 1828 967
4841 1 1828 3792
4842 1 1830 967
4843 1 1830 3792
4844 1 1832 967
4845 1 1832 3792
4846 1 1838 967
4847 1 1838 3792
4848 1 1844 967
4849 1 1844 3792
4850 1 1858 967
4851 1 1858 3792
4852 1 1860 967
4853 1 1860 3792
4854 1 1862 967
4855 1 1862 3792
4856 1 1864 967
4857 1 1864 3792
4858 1 1866 967
4859 1 1866 3792
4860 1 1932 967
4861 1 1932 3792
4862 1 1934 967
4863 1 1934 3792
4864 1 1936 967
4865 1 1936 3792
4866 1 1938 967
4867 1 1938 3792
4868 1 1940 967
4869 1 1940 3792
4870 1 1942 967
4871 1 1942 3792
4872 1 1944 967
4873 1 1944 3792
4874 1 1946 967
4875 1 1946 3792
4876 1 1948 967
4877 1 1948 3792
4878 1 1956 967
4879 1 1956 3792
4880 1 1962 967
4881 1 1962 3792
4882 1 1976 967
4883 1 1976 3792
4884 1 1978 967
4885 1 1978 3792
4886 1 1980 967
4887 1 1980 3792
4888 1 1982 967
4889 1 1982 3792
4890 1 1984 967
4891 1 1984 3792
4892 1 1986 967
4893 1 1986 3792
4894 1 1992 967
4895 1 1992 3792
4896 1 2006 967
4897 1 2006 3792
4898 1 2008 967
4899 1 2008 3792
4900 1 2010 967
4901 1 2010 3792
4902 1 2012 967
4903 1 2012 3792
4904 1 2014 967
4905 1 2014 3792
4906 1 2022 967
4907 1 2022 3792
4908 1 2036 967
4909 1 2036 3792
4910 1 2038 967
4911 1 2038 3792
4912 1 2040 967
4913 1 2040 3792
4914 1 2042 967
4915 1 2042 3792
4916 1 2044 967
4917 1 2044 3792
4918 1 2046 967
4919 1 2046 3792
4920 1 2058 967
4921 1 2058 3792
4922 1 2072 967
4923 1 2072 3792
4924 1 2074 967
4925 1 2074 3792
4926 1 2076 967
4927 1 2076 3792
4928 1 2078 967
4929 1 2078 3792
4930 1 2080 967
4931 1 2080 3792
4932 1 2082 967
4933 1 2082 3792
4934 1 2095 967
4935 1 2095 3792
4936 1 2109 967
4937 1 2109 3792
4938 1 2111 967
4939 1 2111 3792
4940 1 2113 967
4941 1 2113 3792
4942 1 2115 967
4943 1 2115 3792
4944 1 2117 967
4945 1 2117 3792
4946 1 2119 967
4947 1 2119 3792
4948 1 3457 1102
4949 1 3457 3792
4950 1 3458 1102
4951 1 3458 3792
4952 1 3459 1102
4953 1 3459 3792
4954 1 1875 1103
4955 1 1875 3792
4956 1 2221 1103
4957 1 2221 3792
4958 1 2427 1103
4959 1 2427 3792
4960 1 2493 1103
4961 1 2493 3792
4962 1 2743 1103
4963 1 2743 3792
4964 1 2765 1103
4965 1 2765 3792
4966 1 3515 1103
4967 1 3515 3792
4968 1 3528 1103
4969 1 3528 3792
4970 1 3695 1103
4971 1 3695 3792
4972 1 1200 909
4973 1 1200 3792
4974 1 1203 909
4975 1 1203 3792
4976 1 1204 909
4977 1 1204 3792
4978 1 1331 909
4979 1 1331 3792
4980 1 1332 909
4981 1 1332 3792
4982 1 1386 909
4983 1 1386 3792
4984 1 1471 909
4985 1 1471 3792
4986 1 1472 909
4987 1 1472 3792
4988 1 1473 909
4989 1 1473 3792
4990 1 1479 909
4991 1 1479 3792
4992 1 1522 909
4993 1 1522 3792
4994 1 1523 909
4995 1 1523 3792
4996 1 1528 909
4997 1 1528 3792
4998 1 1530 909
4999 1 1530 3792
5000 1 1531 909
5001 1 1531 3792
5002 1 1532 909
5003 1 1532 3792
5004 1 1533 909
5005 1 1533 3792
5006 1 1535 909
5007 1 1535 3792
5008 1 1562 909
5009 1 1562 3792
5010 1 1563 909
5011 1 1563 3792
5012 1 1564 909
5013 1 1564 3792
5014 1 1628 909
5015 1 1628 3792
5016 1 1629 909
5017 1 1629 3792
5018 1 1793 909
5019 1 1793 3792
5020 1 1800 909
5021 1 1800 3792
5022 1 1801 909
5023 1 1801 3792
5024 1 1834 909
5025 1 1834 3792
5026 1 1835 909
5027 1 1835 3792
5028 1 1931 909
5029 1 1931 3792
5030 1 2049 909
5031 1 2049 3792
5032 1 2121 909
5033 1 2121 3792
5034 1 2122 909
5035 1 2122 3792
5036 1 2155 909
5037 1 2155 3792
5038 1 3414 851
5039 1 3414 3792
5040 1 3415 851
5041 1 3415 3792
5042 1 3539 851
5043 1 3539 3792
5044 1 3540 851
5045 1 3540 3792
5046 1 3541 851
5047 1 3541 3792
5048 1 3751 851
5049 1 3751 3792
5050 1 3752 851
5051 1 3752 3792
5052 1 3755 851
5053 1 3755 3792
5054 1 2211 909
5055 1 2211 3792
5056 1 2228 909
5057 1 2228 3792
5058 1 2819 846
5059 1 2819 3792
5060 1 2820 846
5061 1 2820 3792
5062 1 1888 978
5063 1 1888 3792
5064 1 3018 870
5065 1 3018 3792
5066 1 3131 870
5067 1 3131 3792
5068 1 3739 874
5069 1 3739 3792
5070 1 3766 874
5071 1 3766 3792
5072 1 2312 909
5073 1 2312 3792
5074 1 2329 909
5075 1 2329 3792
5076 1 2197 891
5077 1 2197 3792
5078 1 2214 891
5079 1 2214 3792
5080 1 2362 891
5081 1 2362 3792
5082 1 2372 891
5083 1 2372 3792
5084 1 2459 891
5085 1 2459 3792
5086 1 2563 891
5087 1 2563 3792
5088 1 2564 891
5089 1 2564 3792
5090 1 2776 891
5091 1 2776 3792
5092 1 3029 891
5093 1 3029 3792
5094 1 3227 891
5095 1 3227 3792
5096 1 2984 893
5097 1 2984 3792
5098 1 3721 893
5099 1 3721 3792
5100 1 2370 909
5101 1 2370 3792
5102 1 1123 902
5103 1 1123 3792
5104 1 1125 902
5105 1 1125 3792
5106 1 1127 902
5107 1 1127 3792
5108 1 1129 902
5109 1 1129 3792
5110 1 1131 902
5111 1 1131 3792
5112 1 1133 902
5113 1 1133 3792
5114 1 1886 902
5115 1 1886 3792
5116 1 1164 905
5117 1 1164 3792
5118 1 2392 909
5119 1 2392 3792
5120 1 2394 909
5121 1 2394 3792
5122 1 2409 909
5123 1 2409 3792
5124 1 2410 909
5125 1 2410 3792
5126 1 1891 913
5127 1 1891 3792
5128 1 2500 909
5129 1 2500 3792
5130 1 2501 909
5131 1 2501 3792
5132 1 2502 909
5133 1 2502 3792
5134 1 2503 909
5135 1 2503 3792
5136 1 2504 909
5137 1 2504 3792
5138 1 2505 909
5139 1 2505 3792
5140 1 2507 909
5141 1 2507 3792
5142 1 2508 909
5143 1 2508 3792
5144 1 1147 948
5145 1 1147 3792
5146 1 1148 948
5147 1 1148 3792
5148 1 1149 948
5149 1 1149 3792
5150 1 1150 948
5151 1 1150 3792
5152 1 1887 948
5153 1 1887 3792
5154 1 2134 1046
5155 1 2134 3792
5156 1 2135 1046
5157 1 2135 3792
5158 1 2377 1046
5159 1 2377 3792
5160 1 2514 1046
5161 1 2514 3792
5162 1 2817 1046
5163 1 2817 3792
5164 1 2823 1046
5165 1 2823 3792
5166 1 2824 1046
5167 1 2824 3792
5168 1 2985 1046
5169 1 2985 3792
5170 1 2986 1046
5171 1 2986 3792
5172 1 2987 1046
5173 1 2987 3792
5174 1 3296 1046
5175 1 3296 3792
5176 1 3489 1046
5177 1 3489 3792
5178 1 3490 1046
5179 1 3490 3792
5180 1 3502 1046
5181 1 3502 3792
5182 1 2544 909
5183 1 2544 3792
5184 1 2735 909
5185 1 2735 3792
5186 1 2281 958
5187 1 2281 3792
5188 1 2738 909
5189 1 2738 3792
5190 1 2744 909
5191 1 2744 3792
5192 1 2768 909
5193 1 2768 3792
5194 1 2769 909
5195 1 2769 3792
5196 1 3044 909
5197 1 3044 3792
5198 1 3051 909
5199 1 3051 3792
5200 1 3053 909
5201 1 3053 3792
5202 1 3054 909
5203 1 3054 3792
5204 1 3055 909
5205 1 3055 3792
5206 1 3062 909
5207 1 3062 3792
5208 1 3063 909
5209 1 3063 3792
5210 1 3064 909
5211 1 3064 3792
5212 1 3065 909
5213 1 3065 3792
5214 1 3066 909
5215 1 3066 3792
5216 1 3067 909
5217 1 3067 3792
5218 1 3068 909
5219 1 3068 3792
5220 1 3127 909
5221 1 3127 3792
5222 1 3129 909
5223 1 3129 3792
5224 1 3132 909
5225 1 3132 3792
5226 1 3134 909
5227 1 3134 3792
5228 1 3171 909
5229 1 3171 3792
5230 1 3193 909
5231 1 3193 3792
5232 1 3201 909
5233 1 3201 3792
5234 1 3203 909
5235 1 3203 3792
5236 1 3207 909
5237 1 3207 3792
5238 1 1162 1010
5239 1 1162 3792
5240 1 1163 1010
5241 1 1163 3792
5242 1 1165 1010
5243 1 1165 3792
5244 1 1167 1010
5245 1 1167 3792
5246 1 1168 1010
5247 1 1168 3792
5248 1 1169 1010
5249 1 1169 3792
5250 1 1170 1010
5251 1 1170 3792
5252 1 1171 1010
5253 1 1171 3792
5254 1 1172 1010
5255 1 1172 3792
5256 1 1173 1010
5257 1 1173 3792
5258 1 1174 1010
5259 1 1174 3792
5260 1 1175 1010
5261 1 1175 3792
5262 1 1176 1010
5263 1 1176 3792
5264 1 1177 1010
5265 1 1177 3792
5266 1 1178 1010
5267 1 1178 3792
5268 1 1179 1010
5269 1 1179 3792
5270 1 1180 1010
5271 1 1180 3792
5272 1 1181 1010
5273 1 1181 3792
5274 1 1182 1010
5275 1 1182 3792
5276 1 1183 1010
5277 1 1183 3792
5278 1 1184 1010
5279 1 1184 3792
5280 1 1185 1010
5281 1 1185 3792
5282 1 2546 1010
5283 1 2546 3792
5284 1 2784 1010
5285 1 2784 3792
5286 1 3019 1010
5287 1 3019 3792
5288 1 3023 1010
5289 1 3023 3792
5290 1 3042 1010
5291 1 3042 3792
5292 1 3057 1010
5293 1 3057 3792
5294 1 3060 1010
5295 1 3060 3792
5296 1 3509 1010
5297 1 3509 3792
5298 1 3657 1010
5299 1 3657 3792
5300 1 3733 1010
5301 1 3733 3792
5302 1 3734 1010
5303 1 3734 3792
5304 1 2172 1014
5305 1 2172 3792
5306 1 3228 909
5307 1 3228 3792
5308 1 3229 909
5309 1 3229 3792
5310 1 3230 909
5311 1 3230 3792
5312 1 1166 1016
5313 1 1166 3792
5314 1 3424 1022
5315 1 3424 3792
5316 1 3273 909
5317 1 3273 3792
5318 1 3275 909
5319 1 3275 3792
5320 1 3276 909
5321 1 3276 3792
5322 1 3281 909
5323 1 3281 3792
5324 1 3303 909
5325 1 3303 3792
5326 1 3321 909
5327 1 3321 3792
5328 1 3021 1030
5329 1 3021 3792
5330 1 3670 1030
5331 1 3670 3792
5332 1 3671 1030
5333 1 3671 3792
5334 1 3322 909
5335 1 3322 3792
5336 1 3324 909
5337 1 3324 3792
5338 1 2145 1034
5339 1 2145 3792
5340 1 2152 1034
5341 1 2152 3792
5342 1 3400 909
5343 1 3400 3792
5344 1 3401 909
5345 1 3401 3792
5346 1 3402 909
5347 1 3402 3792
5348 1 3403 909
5349 1 3403 3792
5350 1 1122 1035
5351 1 1122 3792
5352 1 3463 909
5353 1 3463 3792
5354 1 2269 1045
5355 1 2269 3792
5356 1 2361 1045
5357 1 2361 3792
5358 1 2440 1045
5359 1 2440 3792
5360 1 2550 1045
5361 1 2550 3792
5362 1 2757 1045
5363 1 2757 3792
5364 1 3052 1045
5365 1 3052 3792
5366 1 3767 1045
5367 1 3767 3792
5368 1 3781 1045
5369 1 3781 3792
5370 1 1950 1051
5371 1 1950 3792
5372 1 2136 1051
5373 1 2136 3792
5374 1 2138 1051
5375 1 2138 3792
5376 1 2751 1051
5377 1 2751 3792
5378 1 2755 1051
5379 1 2755 3792
5380 1 3158 1051
5381 1 3158 3792
5382 1 3486 1051
5383 1 3486 3792
5384 1 3508 909
5385 1 3508 3792
5386 1 1890 1068
5387 1 1890 3792
5388 1 2783 1068
5389 1 2783 3792
5390 1 2972 1068
5391 1 2972 3792
5392 1 2980 1068
5393 1 2980 3792
5394 1 3485 1068
5395 1 3485 3792
5396 1 3532 909
5397 1 3532 3792
5398 1 2156 1077
5399 1 2156 3792
5400 1 2230 1077
5401 1 2230 3792
5402 1 1889 878
5403 1 1889 3792
5404 1 2340 878
5405 1 2340 3792
5406 1 3248 878
5407 1 3248 3792
5408 1 2330 1077
5409 1 2330 3792
5410 1 2342 1077
5411 1 2342 3792
5412 1 2729 1077
5413 1 2729 3792
5414 1 3263 1077
5415 1 3263 3792
5416 1 3318 1077
5417 1 3318 3792
5418 1 3713 1077
5419 1 3713 3792
5420 1 3547 909
5421 1 3547 3792
5422 1 3061 1081
5423 1 3061 3792
5424 1 3234 1081
5425 1 3234 3792
5426 1 3243 1081
5427 1 3243 3792
5428 1 3738 1096
5429 1 3738 3792
5430 1 3778 1096
5431 1 3778 3792
5432 1 3718 909
5433 1 3718 3792
5434 1 3720 909
5435 1 3720 3792
5436 1 3729 909
5437 1 3729 3792
5438 1 3772 909
5439 1 3772 3792
5440 1 3779 909
5441 1 3779 3792
5442 1 2139 842
5443 1 2139 3792
5444 1 2140 842
5445 1 2140 3792
5446 1 2141 842
5447 1 2141 3792
5448 1 2164 842
5449 1 2164 3792
5450 1 2235 842
5451 1 2235 3792
5452 1 2243 842
5453 1 2243 3792
5454 1 2244 842
5455 1 2244 3792
5456 1 2741 842
5457 1 2741 3792
5458 1 2739 984
5459 1 2739 3792
5460 1 3022 984
5461 1 3022 3792
5462 1 3162 984
5463 1 3162 3792
5464 1 3280 842
5465 1 3280 3792
5466 1 3301 842
5467 1 3301 3792
5468 1 3453 842
5469 1 3453 3792
5470 1 3708 842
5471 1 3708 3792
5472 1 3543 904
5473 1 3543 3792
5474 1 1904 1006
5475 1 1904 3792
5476 1 2728 1006
5477 1 2728 3792
5478 1 2818 1006
5479 1 2818 3792
5480 1 3198 1006
5481 1 3198 3792
5482 1 3199 1006
5483 1 3199 3792
5484 1 3200 1006
5485 1 3200 3792
5486 1 3511 1006
5487 1 3511 3792
5488 1 3630 1006
5489 1 3630 3792
5490 1 3663 1006
5491 1 3663 3792
5492 1 3664 1006
5493 1 3664 3792
5494 1 3699 1006
5495 1 3699 3792
5496 1 3702 1006
5497 1 3702 3792
5498 1 2551 924
5499 1 2551 3792
5500 1 3236 924
5501 1 3236 3792
5502 1 3408 924
5503 1 3408 3792
5504 1 3409 924
5505 1 3409 3792
5506 1 3410 924
5507 1 3410 3792
5508 1 3411 924
5509 1 3411 3792
5510 1 3416 924
5511 1 3416 3792
5512 1 3417 924
5513 1 3417 3792
5514 1 3418 924
5515 1 3418 3792
5516 1 3419 924
5517 1 3419 3792
5518 1 3420 924
5519 1 3420 3792
5520 1 3421 924
5521 1 3421 3792
5522 1 3422 924
5523 1 3422 3792
5524 1 3423 924
5525 1 3423 3792
5526 1 3742 924
5527 1 3742 3792
5528 1 3780 924
5529 1 3780 3792
5530 1 3480 1095
5531 1 3480 3792
5532 1 2267 925
5533 1 2267 3792
5534 1 2314 925
5535 1 2314 3792
5536 1 2378 971
5537 1 2378 3792
5538 1 2779 971
5539 1 2779 3792
5540 1 3047 971
5541 1 3047 3792
5542 1 3237 971
5543 1 3237 3792
5544 1 2379 974
5545 1 2379 3792
5546 1 2780 974
5547 1 2780 3792
5548 1 3048 974
5549 1 3048 3792
5550 1 3239 974
5551 1 3239 3792
5552 1 3000 966
5553 1 3000 3792
5554 1 2333 943
5555 1 2333 3792
5556 1 1113 945
5557 1 1113 3792
5558 1 1905 945
5559 1 1905 3792
5560 1 1459 920
5561 1 1459 3792
5562 1 1463 920
5563 1 1463 3792
5564 1 2171 920
5565 1 2171 3792
5566 1 2325 920
5567 1 2325 3792
5568 1 3315 920
5569 1 3315 3792
5570 1 3520 920
5571 1 3520 3792
5572 1 3616 920
5573 1 3616 3792
5574 1 1466 980
5575 1 1466 3792
5576 1 1908 980
5577 1 1908 3792
5578 1 3135 980
5579 1 3135 3792
5580 1 2730 1018
5581 1 2730 3792
5582 1 2821 1018
5583 1 2821 3792
5584 1 3404 1018
5585 1 3404 3792
5586 1 3505 1018
5587 1 3505 3792
5588 1 1458 990
5589 1 1458 3792
5590 1 1465 990
5591 1 1465 3792
5592 1 1469 990
5593 1 1469 3792
5594 1 1470 990
5595 1 1470 3792
5596 1 1906 990
5597 1 1906 3792
5598 1 2204 990
5599 1 2204 3792
5600 1 2239 990
5601 1 2239 3792
5602 1 2249 990
5603 1 2249 3792
5604 1 2319 990
5605 1 2319 3792
5606 1 2320 990
5607 1 2320 3792
5608 1 2321 990
5609 1 2321 3792
5610 1 2322 990
5611 1 2322 3792
5612 1 2327 990
5613 1 2327 3792
5614 1 2328 990
5615 1 2328 3792
5616 1 2150 941
5617 1 2150 3792
5618 1 2272 941
5619 1 2272 3792
5620 1 2273 941
5621 1 2273 3792
5622 1 2274 941
5623 1 2274 3792
5624 1 2275 941
5625 1 2275 3792
5626 1 3140 941
5627 1 3140 3792
5628 1 3668 941
5629 1 3668 3792
5630 1 2384 956
5631 1 2384 3792
5632 1 3082 990
5633 1 3082 3792
5634 1 1907 1011
5635 1 1907 3792
5636 1 2147 1011
5637 1 2147 3792
5638 1 2148 1011
5639 1 2148 3792
5640 1 2184 1011
5641 1 2184 3792
5642 1 2357 1011
5643 1 2357 3792
5644 1 2404 1011
5645 1 2404 3792
5646 1 2565 1011
5647 1 2565 3792
5648 1 2566 1011
5649 1 2566 3792
5650 1 2567 1011
5651 1 2567 3792
5652 1 2568 1011
5653 1 2568 3792
5654 1 2569 1011
5655 1 2569 3792
5656 1 2570 1011
5657 1 2570 3792
5658 1 2571 1011
5659 1 2571 3792
5660 1 2572 1011
5661 1 2572 3792
5662 1 2573 1011
5663 1 2573 3792
5664 1 2574 1011
5665 1 2574 3792
5666 1 2575 1011
5667 1 2575 3792
5668 1 2576 1011
5669 1 2576 3792
5670 1 2577 1011
5671 1 2577 3792
5672 1 3117 1011
5673 1 3117 3792
5674 1 3143 1011
5675 1 3143 3792
5676 1 3163 1011
5677 1 3163 3792
5678 1 3719 1011
5679 1 3719 3792
5680 1 3251 990
5681 1 3251 3792
5682 1 3304 990
5683 1 3304 3792
5684 1 3305 990
5685 1 3305 3792
5686 1 3307 990
5687 1 3307 3792
5688 1 3308 990
5689 1 3308 3792
5690 1 3309 990
5691 1 3309 3792
5692 1 3310 990
5693 1 3310 3792
5694 1 3312 990
5695 1 3312 3792
5696 1 3426 990
5697 1 3426 3792
5698 1 3427 990
5699 1 3427 3792
5700 1 2132 1074
5701 1 2132 3792
5702 1 2971 1074
5703 1 2971 3792
5704 1 3169 1074
5705 1 3169 3792
5706 1 3575 990
5707 1 3575 3792
5708 1 3576 990
5709 1 3576 3792
5710 1 3582 990
5711 1 3582 3792
5712 1 3583 990
5713 1 3583 3792
5714 1 3588 990
5715 1 3588 3792
5716 1 3597 990
5717 1 3597 3792
5718 1 3610 990
5719 1 3610 3792
5720 1 3611 990
5721 1 3611 3792
5722 1 3612 990
5723 1 3612 3792
5724 1 3613 990
5725 1 3613 3792
5726 1 3614 990
5727 1 3614 3792
5728 1 3615 990
5729 1 3615 3792
5730 1 3635 990
5731 1 3635 3792
5732 1 3638 990
5733 1 3638 3792
5734 1 3641 990
5735 1 3641 3792
5736 1 3642 990
5737 1 3642 3792
5738 1 3644 990
5739 1 3644 3792
5740 1 3711 990
5741 1 3711 3792
5742 1 3759 990
5743 1 3759 3792
5744 1 3762 990
5745 1 3762 3792
5746 1 3769 990
5747 1 3769 3792
5748 1 3770 990
5749 1 3770 3792
5750 1 3771 990
5751 1 3771 3792
5752 1 3773 990
5753 1 3773 3792
5754 1 3789 990
5755 1 3789 3792
5756 1 3790 990
5757 1 3790 3792
5758 1 1462 1067
5759 1 1462 3792
5760 1 2159 1067
5761 1 2159 3792
5762 1 2390 1067
5763 1 2390 3792
5764 1 2494 1067
5765 1 2494 3792
5766 1 3399 1067
5767 1 3399 3792
5768 1 3441 1067
5769 1 3441 3792
5770 1 3446 1067
5771 1 3446 3792
5772 1 3452 1067
5773 1 3452 3792
5774 1 3601 1067
5775 1 3601 3792
5776 1 3629 1067
5777 1 3629 3792
5778 1 3688 1067
5779 1 3688 3792
5780 1 3689 1067
5781 1 3689 3792
5782 1 1368 1079
5783 1 1368 3792
5784 1 1371 1079
5785 1 1371 3792
5786 1 1464 1079
5787 1 1464 3792
5788 1 2326 1079
5789 1 2326 3792
5790 1 2199 1073
5791 1 2199 3792
5792 1 2231 1073
5793 1 2231 3792
5794 1 2276 1073
5795 1 2276 3792
5796 1 2748 1073
5797 1 2748 3792
5798 1 2993 1073
5799 1 2993 3792
5800 1 3548 1073
5801 1 3548 3792
5802 1 3447 1108
5803 1 3447 3792
5804 1 3607 1108
5805 1 3607 3792
5806 1 1120 949
5807 1 1120 3792
5808 1 1792 949
5809 1 1792 3792
5810 1 1796 949
5811 1 1796 3792
5812 1 1913 949
5813 1 1913 3792
5814 1 1797 910
5815 1 1797 3792
5816 1 2554 910
5817 1 2554 3792
5818 1 3434 910
5819 1 3434 3792
5820 1 3491 910
5821 1 3491 3792
5822 1 1110 917
5823 1 1110 3792
5824 1 1112 917
5825 1 1112 3792
5826 1 1468 917
5827 1 1468 3792
5828 1 2532 830
5829 1 2532 3792
5830 1 2533 830
5831 1 2533 3792
5832 1 2535 830
5833 1 2535 3792
5834 1 2536 830
5835 1 2536 3792
5836 1 2144 917
5837 1 2144 3792
5838 1 2188 917
5839 1 2188 3792
5840 1 2189 917
5841 1 2189 3792
5842 1 2190 917
5843 1 2190 3792
5844 1 2234 917
5845 1 2234 3792
5846 1 2318 917
5847 1 2318 3792
5848 1 2331 917
5849 1 2331 3792
5850 1 2446 917
5851 1 2446 3792
5852 1 3167 917
5853 1 3167 3792
5854 1 3180 917
5855 1 3180 3792
5856 1 3185 917
5857 1 3185 3792
5858 1 3205 917
5859 1 3205 3792
5860 1 3206 917
5861 1 3206 3792
5862 1 3278 917
5863 1 3278 3792
5864 1 3436 917
5865 1 3436 3792
5866 1 3512 917
5867 1 3512 3792
5868 1 3662 917
5869 1 3662 3792
5870 1 3680 917
5871 1 3680 3792
5872 1 3706 917
5873 1 3706 3792
5874 1 3045 949
5875 1 3045 3792
5876 1 3046 949
5877 1 3046 3792
5878 1 1124 989
5879 1 1124 3792
5880 1 1126 989
5881 1 1126 3792
5882 1 1128 989
5883 1 1128 3792
5884 1 1130 989
5885 1 1130 3792
5886 1 1132 989
5887 1 1132 3792
5888 1 1134 989
5889 1 1134 3792
5890 1 1135 989
5891 1 1135 3792
5892 1 1136 989
5893 1 1136 3792
5894 1 1137 989
5895 1 1137 3792
5896 1 1138 989
5897 1 1138 3792
5898 1 1139 989
5899 1 1139 3792
5900 1 1140 989
5901 1 1140 3792
5902 1 1141 989
5903 1 1141 3792
5904 1 1142 989
5905 1 1142 3792
5906 1 1143 989
5907 1 1143 3792
5908 1 1144 989
5909 1 1144 3792
5910 1 1145 989
5911 1 1145 3792
5912 1 1146 989
5913 1 1146 3792
5914 1 2731 1004
5915 1 2731 3792
5916 1 2732 1004
5917 1 2732 3792
5918 1 3182 1004
5919 1 3182 3792
5920 1 3186 1004
5921 1 3186 3792
5922 1 3181 949
5923 1 3181 3792
5924 1 3187 949
5925 1 3187 3792
5926 1 3213 949
5927 1 3213 3792
5928 1 3479 949
5929 1 3479 3792
5930 1 3481 949
5931 1 3481 3792
5932 1 2515 1059
5933 1 2515 3792
5934 1 2516 1059
5935 1 2516 3792
5936 1 2517 1059
5937 1 2517 3792
5938 1 2809 1059
5939 1 2809 3792
5940 1 3537 1059
5941 1 3537 3792
5942 1 3551 1059
5943 1 3551 3792
5944 1 3684 1059
5945 1 3684 3792
5946 1 2153 831
5947 1 2153 3792
5948 1 2389 845
5949 1 2389 3792
5950 1 2154 1075
5951 1 2154 3792
5952 1 2207 848
5953 1 2207 3792
5954 1 2279 848
5955 1 2279 3792
5956 1 2345 848
5957 1 2345 3792
5958 1 2346 848
5959 1 2346 3792
5960 1 2450 848
5961 1 2450 3792
5962 1 2513 848
5963 1 2513 3792
5964 1 2547 848
5965 1 2547 3792
5966 1 2549 848
5967 1 2549 3792
5968 1 2580 848
5969 1 2580 3792
5970 1 2816 848
5971 1 2816 3792
5972 1 3007 848
5973 1 3007 3792
5974 1 3039 848
5975 1 3039 3792
5976 1 3040 848
5977 1 3040 3792
5978 1 3122 848
5979 1 3122 3792
5980 1 3130 848
5981 1 3130 3792
5982 1 3177 848
5983 1 3177 3792
5984 1 3653 848
5985 1 3653 3792
5986 1 3683 848
5987 1 3683 3792
5988 1 3715 848
5989 1 3715 3792
5990 1 2455 858
5991 1 2455 3792
5992 1 3651 858
5993 1 3651 3792
5994 1 2315 871
5995 1 2315 3792
5996 1 2734 871
5997 1 2734 3792
5998 1 3282 871
5999 1 3282 3792
6000 1 3672 871
6001 1 3672 3792
6002 1 2749 872
6003 1 2749 3792
6004 1 2270 892
6005 1 2270 3792
6006 1 2401 896
6007 1 2401 3792
6008 1 3522 897
6009 1 3522 3792
6010 1 2558 918
6011 1 2558 3792
6012 1 3220 918
6013 1 3220 3792
6014 1 3521 918
6015 1 3521 3792
6016 1 2998 927
6017 1 2998 3792
6018 1 2215 929
6019 1 2215 3792
6020 1 3514 929
6021 1 3514 3792
6022 1 3176 942
6023 1 3176 3792
6024 1 2157 951
6025 1 2157 3792
6026 1 2173 951
6027 1 2173 3792
6028 1 3188 951
6029 1 3188 3792
6030 1 3510 951
6031 1 3510 3792
6032 1 2805 963
6033 1 2805 3792
6034 1 2182 973
6035 1 2182 3792
6036 1 2264 973
6037 1 2264 3792
6038 1 2421 973
6039 1 2421 3792
6040 1 2733 973
6041 1 2733 3792
6042 1 3165 973
6043 1 3165 3792
6044 1 3257 973
6045 1 3257 3792
6046 1 3258 973
6047 1 3258 3792
6048 1 3494 973
6049 1 3494 3792
6050 1 3495 973
6051 1 3495 3792
6052 1 3525 973
6053 1 3525 3792
6054 1 2146 988
6055 1 2146 3792
6056 1 3166 1075
6057 1 3166 3792
6058 1 3159 1003
6059 1 3159 3792
6060 1 2170 1009
6061 1 2170 3792
6062 1 2149 1027
6063 1 2149 3792
6064 1 2359 1027
6065 1 2359 3792
6066 1 3232 1027
6067 1 3232 3792
6068 1 3233 1027
6069 1 3233 3792
6070 1 2218 1031
6071 1 2218 3792
6072 1 2400 1031
6073 1 2400 3792
6074 1 2435 1031
6075 1 2435 3792
6076 1 2444 1031
6077 1 2444 3792
6078 1 2559 1031
6079 1 2559 3792
6080 1 2740 1031
6081 1 2740 3792
6082 1 2773 1031
6083 1 2773 3792
6084 1 2774 1031
6085 1 2774 3792
6086 1 2983 1031
6087 1 2983 3792
6088 1 3069 1031
6089 1 3069 3792
6090 1 3070 1031
6091 1 3070 3792
6092 1 3071 1031
6093 1 3071 3792
6094 1 3072 1031
6095 1 3072 3792
6096 1 3073 1031
6097 1 3073 3792
6098 1 3074 1031
6099 1 3074 3792
6100 1 3075 1031
6101 1 3075 3792
6102 1 3076 1031
6103 1 3076 3792
6104 1 3077 1031
6105 1 3077 3792
6106 1 3078 1031
6107 1 3078 3792
6108 1 3079 1031
6109 1 3079 3792
6110 1 3080 1031
6111 1 3080 3792
6112 1 3178 1031
6113 1 3178 3792
6114 1 3255 1031
6115 1 3255 3792
6116 1 3266 1031
6117 1 3266 3792
6118 1 3267 1031
6119 1 3267 3792
6120 1 3507 1031
6121 1 3507 3792
6122 1 3534 1031
6123 1 3534 3792
6124 1 3712 1031
6125 1 3712 3792
6126 1 3725 1031
6127 1 3725 3792
6128 1 3726 1031
6129 1 3726 3792
6130 1 3727 1031
6131 1 3727 3792
6132 1 3728 1031
6133 1 3728 3792
6134 1 3325 1075
6135 1 3325 3792
6136 1 3478 1075
6137 1 3478 3792
6138 1 3496 1075
6139 1 3496 3792
6140 1 2185 1080
6141 1 2185 3792
6142 1 2579 1080
6143 1 2579 3792
6144 1 3168 1080
6145 1 3168 3792
6146 1 3204 1080
6147 1 3204 3792
6148 1 3210 1080
6149 1 3210 3792
6150 1 3435 1080
6151 1 3435 3792
6152 1 3519 1080
6153 1 3519 3792
6154 1 2423 1083
6155 1 2423 3792
6156 1 3685 1075
6157 1 3685 3792
6158 1 3677 949
6159 1 3677 3792
6160 1 3681 949
6161 1 3681 3792
6162 1 3682 949
6163 1 3682 3792
6164 1 3714 949
6165 1 3714 3792
6166 1 3722 949
6167 1 3722 3792
6168 1 3732 949
6169 1 3732 3792
6170 1 1201 955
6171 1 1201 3792
6172 1 1292 955
6173 1 1292 3792
6174 1 1880 955
6175 1 1880 3792
6176 1 1882 923
6177 1 1882 3792
6178 1 1756 946
6179 1 1756 3792
6180 1 3136 946
6181 1 3136 3792
6182 1 3138 946
6183 1 3138 3792
6184 1 2764 923
6185 1 2764 3792
6186 1 3137 1047
6187 1 3137 3792
6188 1 3139 1047
6189 1 3139 3792
6190 1 1883 976
6191 1 1883 3792
6192 1 3107 976
6193 1 3107 3792
6194 1 3461 976
6195 1 3461 3792
6196 1 3295 1048
6197 1 3295 3792
6198 1 3297 1048
6199 1 3297 3792
6200 1 1881 1062
6201 1 1881 3792
6202 1 2996 1062
6203 1 2996 3792
6204 1 3440 1062
6205 1 3440 3792
6206 1 2750 3791
6207 1 2750 3792
6208 1 1207 968
6209 1 1207 3792
6210 1 1556 968
6211 1 1556 3792
6212 1 1757 751
6213 1 1757 3792
6214 1 1373 752
6215 1 1373 3792
6216 1 1374 752
6217 1 1374 3792
6218 1 1372 811
6219 1 1372 3792
6220 1 1909 811
6221 1 1909 3792
6222 1 1219 829
6223 1 1219 3792
6224 1 1225 829
6225 1 1225 3792
6226 1 1239 829
6227 1 1239 3792
6228 1 1241 829
6229 1 1241 3792
6230 1 1243 829
6231 1 1243 3792
6232 1 1245 829
6233 1 1245 3792
6234 1 1247 829
6235 1 1247 3792
6236 1 1260 829
6237 1 1260 3792
6238 1 1266 829
6239 1 1266 3792
6240 1 1280 829
6241 1 1280 3792
6242 1 1282 829
6243 1 1282 3792
6244 1 1284 829
6245 1 1284 3792
6246 1 1287 829
6247 1 1287 3792
6248 1 1289 829
6249 1 1289 3792
6250 1 1301 829
6251 1 1301 3792
6252 1 1307 829
6253 1 1307 3792
6254 1 1321 829
6255 1 1321 3792
6256 1 1323 829
6257 1 1323 3792
6258 1 1325 829
6259 1 1325 3792
6260 1 1327 829
6261 1 1327 3792
6262 1 1329 829
6263 1 1329 3792
6264 1 1337 829
6265 1 1337 3792
6266 1 1343 829
6267 1 1343 3792
6268 1 1357 829
6269 1 1357 3792
6270 1 1359 829
6271 1 1359 3792
6272 1 1361 829
6273 1 1361 3792
6274 1 1363 829
6275 1 1363 3792
6276 1 1365 829
6277 1 1365 3792
6278 1 1395 829
6279 1 1395 3792
6280 1 1409 829
6281 1 1409 3792
6282 1 1411 829
6283 1 1411 3792
6284 1 1413 829
6285 1 1413 3792
6286 1 1415 829
6287 1 1415 3792
6288 1 1417 829
6289 1 1417 3792
6290 1 1419 829
6291 1 1419 3792
6292 1 1428 829
6293 1 1428 3792
6294 1 1434 829
6295 1 1434 3792
6296 1 1448 829
6297 1 1448 3792
6298 1 1450 829
6299 1 1450 3792
6300 1 1452 829
6301 1 1452 3792
6302 1 1454 829
6303 1 1454 3792
6304 1 1456 829
6305 1 1456 3792
6306 1 1497 829
6307 1 1497 3792
6308 1 1511 829
6309 1 1511 3792
6310 1 1513 829
6311 1 1513 3792
6312 1 1515 829
6313 1 1515 3792
6314 1 1517 829
6315 1 1517 3792
6316 1 1519 829
6317 1 1519 3792
6318 1 1521 829
6319 1 1521 3792
6320 1 1574 829
6321 1 1574 3792
6322 1 1591 829
6323 1 1591 3792
6324 1 1593 829
6325 1 1593 3792
6326 1 1595 829
6327 1 1595 3792
6328 1 1603 829
6329 1 1603 3792
6330 1 1617 829
6331 1 1617 3792
6332 1 1619 829
6333 1 1619 3792
6334 1 1621 829
6335 1 1621 3792
6336 1 1623 829
6337 1 1623 3792
6338 1 1625 829
6339 1 1625 3792
6340 1 1627 829
6341 1 1627 3792
6342 1 1638 829
6343 1 1638 3792
6344 1 1655 829
6345 1 1655 3792
6346 1 1657 829
6347 1 1657 3792
6348 1 1659 829
6349 1 1659 3792
6350 1 1665 829
6351 1 1665 3792
6352 1 1679 829
6353 1 1679 3792
6354 1 1681 829
6355 1 1681 3792
6356 1 1683 829
6357 1 1683 3792
6358 1 1685 829
6359 1 1685 3792
6360 1 1687 829
6361 1 1687 3792
6362 1 1689 829
6363 1 1689 3792
6364 1 1696 829
6365 1 1696 3792
6366 1 1702 829
6367 1 1702 3792
6368 1 1716 829
6369 1 1716 3792
6370 1 1718 829
6371 1 1718 3792
6372 1 1720 829
6373 1 1720 3792
6374 1 1722 829
6375 1 1722 3792
6376 1 1724 829
6377 1 1724 3792
6378 1 1731 829
6379 1 1731 3792
6380 1 1745 829
6381 1 1745 3792
6382 1 1747 829
6383 1 1747 3792
6384 1 1749 829
6385 1 1749 3792
6386 1 1751 829
6387 1 1751 3792
6388 1 1753 829
6389 1 1753 3792
6390 1 1755 829
6391 1 1755 3792
6392 1 1761 829
6393 1 1761 3792
6394 1 1767 829
6395 1 1767 3792
6396 1 1781 829
6397 1 1781 3792
6398 1 1783 829
6399 1 1783 3792
6400 1 1785 829
6401 1 1785 3792
6402 1 1787 829
6403 1 1787 3792
6404 1 1789 829
6405 1 1789 3792
6406 1 1805 829
6407 1 1805 3792
6408 1 1811 829
6409 1 1811 3792
6410 1 1825 829
6411 1 1825 3792
6412 1 1827 829
6413 1 1827 3792
6414 1 1829 829
6415 1 1829 3792
6416 1 1831 829
6417 1 1831 3792
6418 1 1833 829
6419 1 1833 3792
6420 1 1839 829
6421 1 1839 3792
6422 1 1845 829
6423 1 1845 3792
6424 1 1859 829
6425 1 1859 3792
6426 1 1861 829
6427 1 1861 3792
6428 1 1863 829
6429 1 1863 3792
6430 1 1865 829
6431 1 1865 3792
6432 1 1867 829
6433 1 1867 3792
6434 1 1933 829
6435 1 1933 3792
6436 1 1935 829
6437 1 1935 3792
6438 1 1937 829
6439 1 1937 3792
6440 1 1939 829
6441 1 1939 3792
6442 1 1941 829
6443 1 1941 3792
6444 1 1943 829
6445 1 1943 3792
6446 1 1945 829
6447 1 1945 3792
6448 1 1947 829
6449 1 1947 3792
6450 1 1949 829
6451 1 1949 3792
6452 1 1957 829
6453 1 1957 3792
6454 1 1963 829
6455 1 1963 3792
6456 1 1977 829
6457 1 1977 3792
6458 1 1979 829
6459 1 1979 3792
6460 1 1981 829
6461 1 1981 3792
6462 1 1983 829
6463 1 1983 3792
6464 1 1985 829
6465 1 1985 3792
6466 1 1987 829
6467 1 1987 3792
6468 1 1993 829
6469 1 1993 3792
6470 1 2007 829
6471 1 2007 3792
6472 1 2009 829
6473 1 2009 3792
6474 1 2011 829
6475 1 2011 3792
6476 1 2013 829
6477 1 2013 3792
6478 1 2015 829
6479 1 2015 3792
6480 1 2023 829
6481 1 2023 3792
6482 1 2037 829
6483 1 2037 3792
6484 1 2039 829
6485 1 2039 3792
6486 1 2041 829
6487 1 2041 3792
6488 1 2043 829
6489 1 2043 3792
6490 1 2045 829
6491 1 2045 3792
6492 1 2047 829
6493 1 2047 3792
6494 1 2059 829
6495 1 2059 3792
6496 1 2073 829
6497 1 2073 3792
6498 1 2075 829
6499 1 2075 3792
6500 1 2077 829
6501 1 2077 3792
6502 1 2079 829
6503 1 2079 3792
6504 1 2081 829
6505 1 2081 3792
6506 1 2083 829
6507 1 2083 3792
6508 1 2096 829
6509 1 2096 3792
6510 1 2110 829
6511 1 2110 3792
6512 1 2112 829
6513 1 2112 3792
6514 1 2114 829
6515 1 2114 3792
6516 1 2116 829
6517 1 2116 3792
6518 1 2118 829
6519 1 2118 3792
6520 1 2120 829
6521 1 2120 3792
6522 1 1795 968
6523 1 1795 3792
6524 1 1460 802
6525 1 1460 3792
6526 1 1375 753
6527 1 1375 3792
6528 1 1376 753
6529 1 1376 3792
6530 1 1377 753
6531 1 1377 3792
6532 1 1378 753
6533 1 1378 3792
6534 1 1379 753
6535 1 1379 3792
6536 1 1380 753
6537 1 1380 3792
6538 1 1381 753
6539 1 1381 3792
6540 1 1382 753
6541 1 1382 3792
6542 1 1383 753
6543 1 1383 3792
6544 1 1384 753
6545 1 1384 3792
6546 1 1385 753
6547 1 1385 3792
6548 1 1387 753
6549 1 1387 3792
6550 1 1477 802
6551 1 1477 3792
6552 1 1474 758
6553 1 1474 3792
6554 1 1566 758
6555 1 1566 3792
6556 1 2050 758
6557 1 2050 3792
6558 1 1534 802
6559 1 1534 3792
6560 1 1208 777
6561 1 1208 3792
6562 1 1388 777
6563 1 1388 3792
6564 1 1475 777
6565 1 1475 3792
6566 1 1476 777
6567 1 1476 3792
6568 1 1478 777
6569 1 1478 3792
6570 1 2016 777
6571 1 2016 3792
6572 1 2048 777
6573 1 2048 3792
6574 1 2084 781
6575 1 2084 3792
6576 1 1910 968
6577 1 1910 3792
6578 1 2052 968
6579 1 2052 3792
6580 1 2759 968
6581 1 2759 3792
6582 1 2760 968
6583 1 2760 3792
6584 1 2772 968
6585 1 2772 3792
6586 1 2295 1056
6587 1 2295 3792
6588 1 2297 1056
6589 1 2297 3792
6590 1 2518 1056
6591 1 2518 3792
6592 1 3709 1056
6593 1 3709 3792
6594 1 3650 968
6595 1 3650 3792
6596 1 2810 3791
6597 1 2810 3792
6598 1 2290 970
6599 1 2290 3792
6600 1 2311 970
6601 1 2311 3792
6602 1 2313 970
6603 1 2313 3792
6604 1 2348 970
6605 1 2348 3792
6606 1 3320 970
6607 1 3320 3792
6608 1 3469 970
6609 1 3469 3792
6610 1 3470 970
6611 1 3470 3792
6612 1 3471 970
6613 1 3471 3792
6614 1 3472 970
6615 1 3472 3792
6616 1 3473 970
6617 1 3473 3792
6618 1 3474 970
6619 1 3474 3792
6620 1 3475 970
6621 1 3475 3792
6622 1 3476 970
6623 1 3476 3792
6624 1 3527 970
6625 1 3527 3792
6626 1 3538 970
6627 1 3538 3792
6628 1 3686 970
6629 1 3686 3792
6630 1 1367 979
6631 1 1367 3792
6632 1 1370 979
6633 1 1370 3792
6634 1 1879 979
6635 1 1879 3792
6636 1 2756 867
6637 1 2756 3792
6638 1 3124 867
6639 1 3124 3792
6640 1 2417 1070
6641 1 2417 3792
6642 1 2777 1070
6643 1 2777 3792
6644 1 2781 1070
6645 1 2781 3792
6646 1 3001 1070
6647 1 3001 3792
6648 1 3100 1070
6649 1 3100 3792
6650 1 3152 1070
6651 1 3152 3792
6652 1 3516 1070
6653 1 3516 3792
6654 1 1917 906
6655 1 1917 3792
6656 1 3393 906
6657 1 3393 3792
6658 1 3704 906
6659 1 3704 3792
6660 1 2461 991
6661 1 2461 3792
6662 1 2492 991
6663 1 2492 3792
6664 1 2767 991
6665 1 2767 3792
6666 1 3056 991
6667 1 3056 3792
6668 1 3058 991
6669 1 3058 3792
6670 1 3059 991
6671 1 3059 3792
6672 1 3172 991
6673 1 3172 3792
6674 1 3146 3791
6675 1 3146 3792
6676 1 1565 1005
6677 1 1565 3792
6678 1 1901 1005
6679 1 1901 3792
6680 1 1955 1005
6681 1 1955 3792
6682 1 2242 1005
6683 1 2242 3792
6684 1 2299 1005
6685 1 2299 3792
6686 1 2324 1005
6687 1 2324 3792
6688 1 2358 1005
6689 1 2358 3792
6690 1 2426 1005
6691 1 2426 3792
6692 1 2367 931
6693 1 2367 3792
6694 1 2332 914
6695 1 2332 3792
6696 1 2470 914
6697 1 2470 3792
6698 1 2471 914
6699 1 2471 3792
6700 1 2473 914
6701 1 2473 3792
6702 1 2474 914
6703 1 2474 3792
6704 1 2478 914
6705 1 2478 3792
6706 1 2479 914
6707 1 2479 3792
6708 1 2481 914
6709 1 2481 3792
6710 1 2482 914
6711 1 2482 3792
6712 1 2485 914
6713 1 2485 3792
6714 1 2486 914
6715 1 2486 3792
6716 1 2487 914
6717 1 2487 3792
6718 1 2491 914
6719 1 2491 3792
6720 1 2995 914
6721 1 2995 3792
6722 1 3544 914
6723 1 3544 3792
6724 1 3545 914
6725 1 3545 3792
6726 1 3546 914
6727 1 3546 3792
6728 1 2469 931
6729 1 2469 3792
6730 1 2472 931
6731 1 2472 3792
6732 1 2476 931
6733 1 2476 3792
6734 1 2480 931
6735 1 2480 3792
6736 1 2483 931
6737 1 2483 3792
6738 1 2488 931
6739 1 2488 3792
6740 1 2489 931
6741 1 2489 3792
6742 1 2519 931
6743 1 2519 3792
6744 1 2522 931
6745 1 2522 3792
6746 1 2523 931
6747 1 2523 3792
6748 1 2524 931
6749 1 2524 3792
6750 1 2525 931
6751 1 2525 3792
6752 1 2526 931
6753 1 2526 3792
6754 1 3160 931
6755 1 3160 3792
6756 1 3314 931
6757 1 3314 3792
6758 1 3736 931
6759 1 3736 3792
6760 1 3737 931
6761 1 3737 3792
6762 1 1794 944
6763 1 1794 3792
6764 1 3011 944
6765 1 3011 3792
6766 1 3014 944
6767 1 3014 3792
6768 1 3017 944
6769 1 3017 3792
6770 1 2581 1005
6771 1 2581 3792
6772 1 2582 1005
6773 1 2582 3792
6774 1 2583 1005
6775 1 2583 3792
6776 1 2973 1005
6777 1 2973 3792
6778 1 2974 1005
6779 1 2974 3792
6780 1 2975 1005
6781 1 2975 3792
6782 1 2976 1005
6783 1 2976 3792
6784 1 2977 1005
6785 1 2977 3792
6786 1 2978 1005
6787 1 2978 3792
6788 1 3036 1005
6789 1 3036 3792
6790 1 3037 1005
6791 1 3037 3792
6792 1 3038 1005
6793 1 3038 3792
6794 1 1903 996
6795 1 1903 3792
6796 1 2180 996
6797 1 2180 3792
6798 1 2181 996
6799 1 2181 3792
6800 1 2237 996
6801 1 2237 3792
6802 1 2490 996
6803 1 2490 3792
6804 1 3133 932
6805 1 3133 3792
6806 1 2543 996
6807 1 2543 3792
6808 1 3013 996
6809 1 3013 3792
6810 1 3016 996
6811 1 3016 3792
6812 1 3272 996
6813 1 3272 3792
6814 1 3226 1005
6815 1 3226 3792
6816 1 3269 1005
6817 1 3269 3792
6818 1 3271 1005
6819 1 3271 3792
6820 1 1902 1033
6821 1 1902 3792
6822 1 2151 1033
6823 1 2151 3792
6824 1 3191 1033
6825 1 3191 3792
6826 1 3192 1033
6827 1 3192 3792
6828 1 3513 1005
6829 1 3513 3792
6830 1 1900 1091
6831 1 1900 3792
6832 1 2236 1091
6833 1 2236 3792
6834 1 2294 1091
6835 1 2294 3792
6836 1 2468 930
6837 1 2468 3792
6838 1 2475 930
6839 1 2475 3792
6840 1 2477 930
6841 1 2477 3792
6842 1 2484 930
6843 1 2484 3792
6844 1 3009 1091
6845 1 3009 3792
6846 1 3010 1091
6847 1 3010 3792
6848 1 3012 1091
6849 1 3012 3792
6850 1 3015 1091
6851 1 3015 3792
6852 1 3270 1091
6853 1 3270 3792
6854 1 3395 1091
6855 1 3395 3792
6856 1 3249 3791
6857 1 3249 3792
6858 1 3252 3791
6859 1 3252 3792
6860 1 1894 1020
6861 1 1894 3792
6862 1 1798 982
6863 1 1798 3792
6864 1 1952 982
6865 1 1952 3792
6866 1 2380 982
6867 1 2380 3792
6868 1 3317 982
6869 1 3317 3792
6870 1 3674 982
6871 1 3674 3792
6872 1 2127 981
6873 1 2127 3792
6874 1 2129 852
6875 1 2129 3792
6876 1 2224 852
6877 1 2224 3792
6878 1 2388 852
6879 1 2388 3792
6880 1 2391 852
6881 1 2391 3792
6882 1 2432 852
6883 1 2432 3792
6884 1 2456 852
6885 1 2456 3792
6886 1 2822 852
6887 1 2822 3792
6888 1 3157 852
6889 1 3157 3792
6890 1 3173 852
6891 1 3173 3792
6892 1 3299 852
6893 1 3299 3792
6894 1 3705 852
6895 1 3705 3792
6896 1 3717 852
6897 1 3717 3792
6898 1 1898 860
6899 1 1898 3792
6900 1 2130 860
6901 1 2130 3792
6902 1 2206 860
6903 1 2206 3792
6904 1 2761 860
6905 1 2761 3792
6906 1 3106 860
6907 1 3106 3792
6908 1 3675 860
6909 1 3675 3792
6910 1 2216 981
6911 1 2216 3792
6912 1 2223 981
6913 1 2223 3792
6914 1 2265 981
6915 1 2265 3792
6916 1 2343 981
6917 1 2343 3792
6918 1 2498 981
6919 1 2498 3792
6920 1 2763 981
6921 1 2763 3792
6922 1 1899 1001
6923 1 1899 3792
6924 1 2131 1001
6925 1 2131 3792
6926 1 2317 1001
6927 1 2317 3792
6928 1 2467 1001
6929 1 2467 3792
6930 1 3119 1001
6931 1 3119 3792
6932 1 3231 1001
6933 1 3231 3792
6934 1 3482 1001
6935 1 3482 3792
6936 1 3649 1001
6937 1 3649 3792
6938 1 1897 1025
6939 1 1897 3792
6940 1 2128 1025
6941 1 2128 3792
6942 1 2509 1025
6943 1 2509 3792
6944 1 3487 1025
6945 1 3487 3792
6946 1 3464 981
6947 1 3464 3792
6948 1 3483 981
6949 1 3483 3792
6950 1 2126 1076
6951 1 2126 3792
6952 1 2162 1076
6953 1 2162 3792
6954 1 2266 1076
6955 1 2266 3792
6956 1 2373 1076
6957 1 2373 3792
6958 1 2374 1076
6959 1 2374 3792
6960 1 2416 1076
6961 1 2416 3792
6962 1 2425 1076
6963 1 2425 3792
6964 1 2428 1076
6965 1 2428 3792
6966 1 2431 1076
6967 1 2431 3792
6968 1 2433 1076
6969 1 2433 3792
6970 1 2512 1076
6971 1 2512 3792
6972 1 2806 1076
6973 1 2806 3792
6974 1 3049 1076
6975 1 3049 3792
6976 1 3050 1076
6977 1 3050 3792
6978 1 3174 1076
6979 1 3174 3792
6980 1 3279 1076
6981 1 3279 3792
6982 1 3298 1076
6983 1 3298 3792
6984 1 3396 1076
6985 1 3396 3792
6986 1 3524 1076
6987 1 3524 3792
6988 1 3529 1076
6989 1 3529 3792
6990 1 3530 1076
6991 1 3530 3792
6992 1 3690 1076
6993 1 3690 3792
6994 1 3526 981
6995 1 3526 3792
6996 1 1896 1093
6997 1 1896 3792
6998 1 2125 1093
6999 1 2125 3792
7000 1 2133 1093
7001 1 2133 3792
7002 1 3691 981
7003 1 3691 3792
7004 1 1895 983
7005 1 1895 3792
7006 1 2124 983
7007 1 2124 3792
7008 1 2393 983
7009 1 2393 3792
7010 1 2438 983
7011 1 2438 3792
7012 1 2742 983
7013 1 2742 3792
7014 1 2770 983
7015 1 2770 3792
7016 1 3216 983
7017 1 3216 3792
7018 1 3217 983
7019 1 3217 3792
7020 1 3497 983
7021 1 3497 3792
7022 1 3250 1020
7023 1 3250 3792
7024 1 3253 1020
7025 1 3253 3792
7026 1 3306 1020
7027 1 3306 3792
7028 1 2166 1055
7029 1 2166 3792
7030 1 2167 1055
7031 1 2167 3792
7032 1 2168 1055
7033 1 2168 3792
7034 1 2222 1055
7035 1 2222 3792
7036 1 2241 1055
7037 1 2241 3792
7038 1 2386 1055
7039 1 2386 3792
7040 1 2387 1055
7041 1 2387 3792
7042 1 2437 1055
7043 1 2437 3792
7044 1 3438 1055
7045 1 3438 3792
7046 1 3439 1055
7047 1 3439 3792
7048 1 3442 1055
7049 1 3442 3792
7050 1 3443 1055
7051 1 3443 3792
7052 1 3444 1055
7053 1 3444 3792
7054 1 3451 1055
7055 1 3451 3792
7056 1 3454 1055
7057 1 3454 3792
7058 1 3455 1055
7059 1 3455 3792
7060 1 3456 1055
7061 1 3456 3792
7062 1 3462 1055
7063 1 3462 3792
7064 1 2341 1086
7065 1 2341 3792
7066 1 3552 1086
7067 1 3552 3792
7068 1 3553 1086
7069 1 3553 3792
7070 1 3554 1086
7071 1 3554 3792
7072 1 3555 1086
7073 1 3555 3792
7074 1 3557 1086
7075 1 3557 3792
7076 1 3558 1086
7077 1 3558 3792
7078 1 3560 1086
7079 1 3560 3792
7080 1 3564 1086
7081 1 3564 3792
7082 1 3565 1086
7083 1 3565 3792
7084 1 3566 1086
7085 1 3566 3792
7086 1 3567 1086
7087 1 3567 3792
7088 1 3568 1086
7089 1 3568 3792
7090 1 3569 1086
7091 1 3569 3792
7092 1 3570 1086
7093 1 3570 3792
7094 1 3571 1086
7095 1 3571 3792
7096 1 3572 1086
7097 1 3572 3792
7098 1 3573 1086
7099 1 3573 3792
7100 1 3574 1086
7101 1 3574 3792
7102 1 3578 1086
7103 1 3578 3792
7104 1 3579 1086
7105 1 3579 3792
7106 1 3581 1086
7107 1 3581 3792
7108 1 3584 1086
7109 1 3584 3792
7110 1 3585 1086
7111 1 3585 3792
7112 1 3586 1086
7113 1 3586 3792
7114 1 3587 1086
7115 1 3587 3792
7116 1 3595 1086
7117 1 3595 3792
7118 1 3596 1086
7119 1 3596 3792
7120 1 3598 1086
7121 1 3598 3792
7122 1 3602 1086
7123 1 3602 3792
7124 1 3603 1086
7125 1 3603 3792
7126 1 3604 1086
7127 1 3604 3792
7128 1 3605 1086
7129 1 3605 3792
7130 1 3606 1086
7131 1 3606 3792
7132 1 3608 1086
7133 1 3608 3792
7134 1 3609 1086
7135 1 3609 3792
7136 1 3617 1086
7137 1 3617 3792
7138 1 3618 1086
7139 1 3618 3792
7140 1 3619 1086
7141 1 3619 3792
7142 1 3620 1086
7143 1 3620 3792
7144 1 3621 1086
7145 1 3621 3792
7146 1 3622 1086
7147 1 3622 3792
7148 1 3623 1086
7149 1 3623 3792
7150 1 3624 1086
7151 1 3624 3792
7152 1 3625 1086
7153 1 3625 3792
7154 1 3626 1086
7155 1 3626 3792
7156 1 3627 1086
7157 1 3627 3792
7158 1 3631 1086
7159 1 3631 3792
7160 1 3632 1086
7161 1 3632 3792
7162 1 3633 1086
7163 1 3633 3792
7164 1 3634 1086
7165 1 3634 3792
7166 1 3636 1086
7167 1 3636 3792
7168 1 3637 1086
7169 1 3637 3792
7170 1 3639 1086
7171 1 3639 3792
7172 1 3640 1086
7173 1 3640 3792
7174 1 3643 1086
7175 1 3643 3792
7176 1 3645 1086
7177 1 3645 3792
7178 1 3646 1086
7179 1 3646 3792
7180 1 3647 1086
7181 1 3647 3792
7182 1 3648 1086
7183 1 3648 3792
7184 1 2183 1026
7185 1 2183 3792
7186 1 2271 1026
7187 1 2271 3792
7188 1 2205 880
7189 1 2205 3792
7190 1 2355 880
7191 1 2355 3792
7192 1 2356 880
7193 1 2356 3792
7194 1 2395 880
7195 1 2395 3792
7196 1 2396 880
7197 1 2396 3792
7198 1 2397 880
7199 1 2397 3792
7200 1 2457 880
7201 1 2457 3792
7202 1 2186 1002
7203 1 2186 3792
7204 1 2187 1002
7205 1 2187 3792
7206 1 2368 1064
7207 1 2368 3792
7208 1 1121 916
7209 1 1121 3792
7210 1 1631 916
7211 1 1631 3792
7212 1 1915 916
7213 1 1915 3792
7214 1 2017 916
7215 1 2017 3792
7216 1 2123 916
7217 1 2123 3792
7218 1 2163 916
7219 1 2163 3792
7220 1 2165 916
7221 1 2165 3792
7222 1 2282 900
7223 1 2282 3792
7224 1 2283 900
7225 1 2283 3792
7226 1 2284 900
7227 1 2284 3792
7228 1 2285 900
7229 1 2285 3792
7230 1 2286 900
7231 1 2286 3792
7232 1 2287 900
7233 1 2287 3792
7234 1 2288 900
7235 1 2288 3792
7236 1 2289 900
7237 1 2289 3792
7238 1 2448 900
7239 1 2448 3792
7240 1 3221 900
7241 1 3221 3792
7242 1 1914 947
7243 1 1914 3792
7244 1 3265 947
7245 1 3265 3792
7246 1 2552 916
7247 1 2552 3792
7248 1 2997 916
7249 1 2997 3792
7250 1 3202 916
7251 1 3202 3792
7252 1 3223 916
7253 1 3223 3792
7254 1 3224 916
7255 1 3224 3792
7256 1 3225 916
7257 1 3225 3792
7258 1 3274 916
7259 1 3274 3792
7260 1 3316 916
7261 1 3316 3792
7262 1 3397 916
7263 1 3397 3792
7264 1 3405 916
7265 1 3405 3792
7266 1 3406 916
7267 1 3406 3792
7268 1 3665 916
7269 1 3665 3792
7270 1 3666 916
7271 1 3666 3792
7272 1 3667 916
7273 1 3667 3792
7274 1 2268 1049
7275 1 2268 3792
7276 1 2812 1049
7277 1 2812 3792
7278 1 3319 1049
7279 1 3319 3792
7280 1 3501 1049
7281 1 3501 3792
7282 1 2981 1098
7283 1 2981 3792
7284 1 2982 1098
7285 1 2982 3792
7286 1 2158 1053
7287 1 2158 3792
7288 1 2226 1053
7289 1 2226 3792
7290 1 2227 1053
7291 1 2227 3792
7292 1 2240 1053
7293 1 2240 3792
7294 1 2252 1053
7295 1 2252 3792
7296 1 2291 1053
7297 1 2291 3792
7298 1 2445 1053
7299 1 2445 3792
7300 1 2453 1053
7301 1 2453 3792
7302 1 2497 1053
7303 1 2497 3792
7304 1 2527 1053
7305 1 2527 3792
7306 1 2528 1053
7307 1 2528 3792
7308 1 2529 1053
7309 1 2529 3792
7310 1 2531 1053
7311 1 2531 3792
7312 1 2782 1053
7313 1 2782 3792
7314 1 3041 1053
7315 1 3041 3792
7316 1 3123 1053
7317 1 3123 3792
7318 1 3148 1053
7319 1 3148 3792
7320 1 3170 1053
7321 1 3170 3792
7322 1 3214 1053
7323 1 3214 3792
7324 1 3241 1053
7325 1 3241 3792
7326 1 3326 1053
7327 1 3326 3792
7328 1 3498 1053
7329 1 3498 3792
7330 1 3535 1053
7331 1 3535 3792
7332 1 3698 1053
7333 1 3698 3792
7334 1 3506 3791
7335 1 3506 3792
7336 1 3164 1063
7337 1 3164 3792
7338 1 2292 1088
7339 1 2292 3792
7340 1 2405 993
7341 1 2405 3792
7342 1 2406 993
7343 1 2406 3792
7344 1 1884 1092
7345 1 1884 3792
7346 1 2137 1092
7347 1 2137 3792
7348 1 2254 850
7349 1 2254 3792
7350 1 3542 850
7351 1 3542 3792
7352 1 3628 850
7353 1 3628 3792
7354 1 3687 850
7355 1 3687 3792
7356 1 2196 1092
7357 1 2196 3792
7358 1 2238 1092
7359 1 2238 3792
7360 1 2246 1092
7361 1 2246 3792
7362 1 2248 1092
7363 1 2248 3792
7364 1 2250 1092
7365 1 2250 3792
7366 1 2251 1092
7367 1 2251 3792
7368 1 2255 1092
7369 1 2255 3792
7370 1 2256 1092
7371 1 2256 3792
7372 1 2257 1092
7373 1 2257 3792
7374 1 2258 1092
7375 1 2258 3792
7376 1 2259 1092
7377 1 2259 3792
7378 1 2260 1092
7379 1 2260 3792
7380 1 2261 1092
7381 1 2261 3792
7382 1 2262 1092
7383 1 2262 3792
7384 1 2263 1092
7385 1 2263 3792
7386 1 2293 1092
7387 1 2293 3792
7388 1 2296 1092
7389 1 2296 3792
7390 1 2298 1092
7391 1 2298 3792
7392 1 2300 1092
7393 1 2300 3792
7394 1 2301 1092
7395 1 2301 3792
7396 1 2302 1092
7397 1 2302 3792
7398 1 2436 1092
7399 1 2436 3792
7400 1 2464 1092
7401 1 2464 3792
7402 1 2520 1092
7403 1 2520 3792
7404 1 2540 1092
7405 1 2540 3792
7406 1 2541 1092
7407 1 2541 3792
7408 1 2542 1092
7409 1 2542 3792
7410 1 1117 953
7411 1 1117 3792
7412 1 1885 953
7413 1 1885 3792
7414 1 3179 953
7415 1 3179 3792
7416 1 3183 953
7417 1 3183 3792
7418 1 2336 1071
7419 1 2336 3792
7420 1 2399 1071
7421 1 2399 3792
7422 1 2556 1071
7423 1 2556 3792
7424 1 2970 1071
7425 1 2970 3792
7426 1 2994 1071
7427 1 2994 3792
7428 1 3550 1071
7429 1 3550 3792
7430 1 3723 1071
7431 1 3723 3792
7432 1 2335 1082
7433 1 2335 3792
7434 1 2398 1082
7435 1 2398 3792
7436 1 2553 1082
7437 1 2553 3792
7438 1 2555 1082
7439 1 2555 3792
7440 1 3549 1082
7441 1 3549 3792
7442 1 3678 953
7443 1 3678 3792
7444 1 2557 954
7445 1 2557 3792
7446 1 2560 954
7447 1 2560 3792
7448 1 2766 954
7449 1 2766 3792
7450 1 2277 1015
7451 1 2277 3792
7452 1 2449 1015
7453 1 2449 3792
7454 1 2815 1015
7455 1 2815 3792
7456 1 3005 1015
7457 1 3005 3792
7458 1 3652 1015
7459 1 3652 3792
7460 1 1951 1061
7461 1 1951 3792
7462 1 3673 1061
7463 1 3673 3792
7464 1 2561 1092
7465 1 2561 3792
7466 1 2736 1092
7467 1 2736 3792
7468 1 2811 1092
7469 1 2811 3792
7470 1 2825 1092
7471 1 2825 3792
7472 1 3081 1092
7473 1 3081 3792
7474 1 3083 1092
7475 1 3083 3792
7476 1 3084 1092
7477 1 3084 3792
7478 1 3085 1092
7479 1 3085 3792
7480 1 3088 1092
7481 1 3088 3792
7482 1 3089 1092
7483 1 3089 3792
7484 1 3090 1092
7485 1 3090 3792
7486 1 3091 1092
7487 1 3091 3792
7488 1 3092 1092
7489 1 3092 3792
7490 1 3093 1092
7491 1 3093 3792
7492 1 3094 1092
7493 1 3094 3792
7494 1 3096 1092
7495 1 3096 3792
7496 1 3098 1092
7497 1 3098 3792
7498 1 3099 1092
7499 1 3099 3792
7500 1 3101 1092
7501 1 3101 3792
7502 1 3102 1092
7503 1 3102 3792
7504 1 3103 1092
7505 1 3103 3792
7506 1 3104 1092
7507 1 3104 3792
7508 1 3144 1092
7509 1 3144 3792
7510 1 3215 1092
7511 1 3215 3792
7512 1 3246 1092
7513 1 3246 3792
7514 1 3277 1092
7515 1 3277 3792
7516 1 3311 1092
7517 1 3311 3792
7518 1 3313 1092
7519 1 3313 3792
7520 1 3425 1092
7521 1 3425 3792
7522 1 3448 1092
7523 1 3448 3792
7524 1 3488 1092
7525 1 3488 3792
7526 1 3556 1092
7527 1 3556 3792
7528 1 3559 1092
7529 1 3559 3792
7530 1 3561 1092
7531 1 3561 3792
7532 1 3562 1092
7533 1 3562 3792
7534 1 3563 1092
7535 1 3563 3792
7536 1 3577 1092
7537 1 3577 3792
7538 1 3580 1092
7539 1 3580 3792
7540 1 3589 1092
7541 1 3589 3792
7542 1 3590 1092
7543 1 3590 3792
7544 1 3591 1092
7545 1 3591 3792
7546 1 3592 1092
7547 1 3592 3792
7548 1 3593 1092
7549 1 3593 3792
7550 1 3594 1092
7551 1 3594 3792
7552 1 3600 1092
7553 1 3600 3792
7554 1 3700 1092
7555 1 3700 3792
7556 1 3710 1092
7557 1 3710 3792
7558 1 3791 3792
