ITEM: TIMESTEP
0
ITEM: NUMBER OF ATOMS
2856
ITEM: BOX BOUNDS pp pp pp
-33.475404 36.524596
-35.323891 27.873769
-25.116248 26.593198
ITEM: ATOMS id type x y z sphere_id kind radius
1 27 9.832742 -15.009293 13.925884 0 0 1.500
2 27 18.110153 -12.488944 6.602714 0 0 1.500
3 27 15.232919 -13.246290 14.309637 0 1 1.200
4 27 17.502094 -11.930485 15.337375 0 1 1.200
5 27 13.044116 -9.775632 10.468000 0 1 1.200
6 27 15.966734 -10.993419 9.211007 0 1 1.200
7 27 18.719035 -9.957367 13.997815 0 1 1.200
8 27 13.859075 -13.815294 13.571209 0 1 1.200
9 27 15.863552 -10.136761 13.080674 0 1 1.200
10 27 16.546151 -7.515321 11.067302 0 1 1.200
11 27 12.281939 -10.376381 15.943363 0 1 1.200
12 27 18.821653 -12.522840 12.920800 0 1 1.200
13 27 13.880615 -14.466847 12.115802 0 1 1.200
14 27 13.397577 -12.136544 16.424953 0 1 1.200
15 27 15.111247 -12.967109 9.810644 0 1 1.200
16 27 14.026357 -11.174920 13.563579 0 1 1.200
17 27 17.267344 -14.927334 12.158017 0 1 1.200
18 27 16.990352 -14.516202 13.574892 0 1 1.200
19 27 16.559137 -13.366262 10.965256 0 1 1.200
20 27 14.332030 -9.626210 14.606602 0 1 1.200
21 27 17.491137 -11.027443 8.396602 0 1 1.200
22 27 12.998334 -13.753884 9.324503 0 1 1.200
23 27 15.869888 -7.122201 12.600217 0 1 1.200
24 27 18.722231 -8.977991 10.824468 0 1 1.200
25 27 18.468440 -13.765095 12.148158 0 1 1.200
26 27 13.411466 -10.954784 15.049072 0 1 1.200
27 27 12.413954 -11.913062 13.681878 0 1 1.200
28 27 14.258180 -10.031331 11.675444 0 1 1.200
29 27 15.333977 -13.530561 12.731861 0 1 1.200
30 27 12.801708 -8.687736 14.759475 0 1 1.200
31 27 17.585444 -10.053758 15.481859 0 1 1.200
32 27 15.554309 -14.950203 14.292444 0 1 1.200
33 27 15.809795 -7.269253 14.390978 0 1 1.200
34 27 14.664003 -10.805008 10.165762 0 1 1.200
35 27 18.598774 -11.580752 14.229945 0 1 1.200
36 27 17.158396 -10.685852 14.051095 0 2 1.100
37 27 14.251830 -13.458655 10.978840 0 2 1.100
38 27 17.768186 -12.985625 8.752611 0 2 1.100
39 27 11.720635 -9.871276 14.451892 0 2 1.100
40 27 16.213595 -12.047309 7.957925 0 2 1.100
41 27 15.350642 -9.617577 16.381881 0 2 1.100
42 27 16.346784 -10.933000 16.256892 0 2 1.100
43 27 17.305159 -9.344061 12.939987 0 2 1.100
44 27 14.075722 -14.809624 14.897475 0 2 1.100
45 27 13.072317 -12.914806 12.627075 0 2 1.100
46 27 16.026429 -11.690968 10.865772 0 2 1.100
47 27 12.676029 -13.180081 11.164459 0 2 1.100
48 27 15.463453 -14.339253 11.337594 0 2 1.100
49 27 17.190885 -7.456190 13.339371 0 2 1.100
50 27 14.343887 -7.514983 12.743063 0 2 1.100
51 27 12.882849 -10.085728 13.374949 0 2 1.100
52 27 19.202036 -11.034265 12.605198 0 2 1.100
53 27 13.857955 -15.188559 10.097930 0 2 1.100
54 27 17.319902 -10.649261 10.173017 0 2 1.100
55 27 19.321185 -12.221575 11.315298 0 2 1.100
56 27 18.562795 -8.421098 13.124183 0 2 1.100
57 27 15.819722 -10.190805 14.871796 0 2 1.100
58 27 14.709495 -12.835127 8.149161 0 2 1.100
59 27 14.823850 -8.175227 15.569618 0 2 1.100
60 27 11.341727 -11.792763 11.677100 0 2 1.100
61 27 12.801813 -15.393060 13.240444 0 2 1.100
62 27 11.088568 -11.411431 14.510736 0 2 1.100
63 27 13.636185 -12.592375 14.594273 0 2 1.100
64 27 14.747819 -11.198489 8.181162 0 2 1.100
65 27 13.279355 -15.797104 11.537704 0 2 1.100
66 27 14.068728 -7.696941 14.259519 0 2 1.100
67 27 14.944295 -11.863379 16.429775 0 2 1.100
68 27 13.825341 -11.987024 10.665888 0 2 1.100
69 27 14.708278 -13.572238 15.896865 0 2 1.100
70 27 12.703435 -8.521952 13.138320 0 2 1.100
71 27 16.517895 -15.463266 10.789673 0 2 1.100
72 27 17.842429 -7.912748 11.736118 0 2 1.100
73 27 14.905694 -15.925087 11.294631 0 2 1.100
74 27 17.980077 -13.289412 14.066890 0 2 1.100
75 27 16.780635 -9.549052 8.692039 0 2 1.100
76 27 12.470057 -14.474335 14.474717 0 2 1.100
77 27 17.958709 -14.346580 10.730320 0 2 1.100
78 27 12.130644 -9.808542 11.898508 0 2 1.100
79 27 14.886456 -7.866247 11.147860 0 2 1.100
80 27 16.930019 -13.060364 12.511630 0 2 1.100
81 27 13.446668 -12.305837 8.934369 0 2 1.100
82 27 11.925223 -14.841698 11.942988 0 2 1.100
83 27 11.650780 -13.888221 13.138002 0 2 1.100
84 27 11.969700 -12.012081 15.712121 0 2 1.100
85 27 10.868569 -12.496081 13.081601 0 2 1.100
86 27 15.918182 -9.809530 10.849153 0 2 1.100
87 27 15.857371 -8.696705 13.899020 0 2 1.100
88 27 17.027414 -14.425330 9.446603 0 2 1.100
89 27 13.053368 -11.366808 12.041327 0 2 1.100
90 27 16.032070 -13.806011 8.437498 0 2 1.100
91 27 12.295174 -14.621211 10.412712 0 2 1.100
92 27 18.636644 -13.102930 10.135557 0 2 1.100
93 27 15.093931 -9.686821 8.750019 0 2 1.100
94 27 16.708260 -12.475300 9.619194 0 2 1.100
95 27 11.276120 -10.695753 12.941153 0 2 1.100
96 27 19.132144 -9.613903 12.200918 0 2 1.100
97 27 14.378055 -15.695367 13.260215 0 2 1.100
98 27 15.154744 -11.614320 14.729820 0 2 1.100
99 27 17.461582 -10.026481 11.557723 0 2 1.100
100 27 16.533169 -12.252721 13.897051 0 2 1.100
101 27 11.505274 -13.146050 14.641236 0 2 1.100
102 27 15.451890 -15.099637 9.622413 0 2 1.100
103 27 16.648235 -13.838118 15.012747 0 2 1.100
104 27 13.419290 -8.547551 11.620321 0 2 1.100
105 27 15.827210 -15.521297 12.675106 0 2 1.100
106 27 13.532150 -9.148655 16.057240 0 2 1.100
107 27 13.368831 -10.763638 9.167607 0 2 1.100
108 27 11.996643 -12.530182 9.891473 0 2 1.100
109 27 15.974499 -8.782405 12.033991 0 2 1.100
110 27 18.451322 -9.851699 9.373010 0 2 1.100
111 27 17.627576 -8.581352 14.572644 0 2 1.100
112 27 11.145438 -13.410709 11.470270 0 2 1.100
113 27 12.946805 -13.561349 15.715113 0 2 1.100
114 27 16.176568 -12.659506 15.890354 0 2 1.100
115 27 14.062956 -10.568243 16.593198 0 2 1.100
116 27 17.426278 -8.588129 10.044082 0 2 1.100
117 27 19.225564 -10.657896 10.804267 0 2 1.100
118 27 15.900950 -8.465575 9.762086 0 2 1.100
119 27 12.185709 -11.089298 10.541552 0 2 1.100
120 27 17.737590 -12.010637 11.154264 0 2 1.100
121 27 16.449654 -8.616923 15.582631 0 2 1.100
122 27 18.738663 -11.587544 9.481249 0 2 1.100
123 27 14.366012 -14.292050 8.823053 0 2 1.100
124 27 14.410457 -9.156075 13.028021 0 2 1.100
125 27 17.398654 -11.346111 12.556119 0 2 1.100
126 27 14.351892 -8.978439 10.041277 0 2 1.100
127 27 15.263998 -11.477291 12.463142 0 3 2.400
128 27 15.121815 -11.710690 12.238485 0 4 2.800
129 24 22.912797 -4.229774 -2.108537 1 0 1.500
130 24 24.217294 -0.479254 -3.310096 1 1 1.200
131 24 23.995053 -2.016182 -3.078700 1 1 1.200
132 24 25.463050 -0.026503 -4.303456 1 1 1.200
133 24 25.561671 -1.338166 -3.046829 1 1 1.200
134 24 23.542244 -0.397446 -4.672561 1 1 1.200
135 24 24.591981 -1.733933 -4.558736 1 1 1.200
136 24 20.605488 0.333467 -1.855324 1 1 1.200
137 24 20.862880 1.166483 -7.659149 1 1 1.200
138 24 20.007996 3.408576 -0.771516 1 1 1.200
139 24 19.923087 3.102050 -3.296281 1 1 1.200
140 24 19.998553 6.978605 -2.780355 1 1 1.200
141 24 24.473719 5.206039 -5.022862 1 1 1.200
142 24 26.000121 -0.950142 -0.898776 1 1 1.200
143 24 24.221719 -0.207797 2.902828 1 1 1.200
144 24 23.369232 6.252126 1.127236 1 1 1.200
145 24 24.294007 3.736376 -4.460803 1 1 1.200
146 24 18.681266 3.075878 -1.111240 1 1 1.200
147 24 20.792436 3.396981 0.677213 1 1 1.200
148 24 23.091548 1.642493 4.717014 1 1 1.200
149 24 23.089589 6.315847 -5.303097 1 1 1.200
150 24 25.975507 2.820999 -3.601421 1 1 1.200
151 24 22.464207 1.743289 -8.139551 1 1 1.200
152 24 24.606293 2.517259 3.918270 1 1 1.200
153 24 22.542913 7.447520 -2.157319 1 1 1.200
154 24 22.581066 0.273453 3.576156 1 1 1.200
155 24 19.014669 3.910845 -4.489848 1 1 1.200
156 24 20.062322 1.627502 -1.266637 1 1 1.200
157 24 21.360311 6.294763 -1.963634 1 1 1.200
158 24 24.660029 1.201419 -1.803898 1 1 1.200
159 24 21.133528 3.155597 2.779297 1 1 1.200
160 24 25.061456 2.699705 -2.309874 1 1 1.200
161 24 21.622201 6.890334 3.357793 1 1 1.200
162 24 20.483799 5.487620 3.341547 1 1 1.200
163 24 23.636367 4.892685 -2.389337 1 1 1.200
164 24 23.807928 6.539139 -3.103106 1 1 1.200
165 24 21.612646 -2.095991 3.543683 1 1 1.200
166 24 22.038895 5.645943 -6.252366 1 1 1.200
167 24 21.007311 7.910892 -1.546131 1 1 1.200
168 24 23.109615 3.593851 -7.079150 1 1 1.200
169 24 22.006712 3.382999 -4.519777 1 1 1.200
170 24 23.243018 3.821785 2.504349 1 1 1.200
171 24 20.561230 -1.934563 -0.763043 1 1 1.200
172 24 20.069942 -3.664157 -1.048998 1 1 1.200
173 24 21.278652 -3.464240 0.266070 1 1 1.200
174 24 19.306182 -1.346720 -0.126343 1 1 1.200
175 24 20.456251 -2.583468 -2.323913 1 1 1.200
176 24 21.736408 -2.610360 -1.247097 1 1 1.200
177 24 19.119544 -2.086419 -1.606751 1 1 1.200
178 24 21.281211 0.663416 2.690112 1 1 1.200
179 24 21.654076 0.745274 -0.088157 1 1 1.200
180 24 20.092519 -2.762233 -4.980031 1 1 1.200
181 24 25.865858 4.135864 0.959857 1 1 1.200
182 24 24.729364 1.637446 -0.160583 1 1 1.200
183 24 19.585047 2.690823 -5.065933 1 1 1.200
184 24 23.792315 3.884569 4.132119 1 1 1.200
185 24 19.393448 -0.848641 2.748830 1 1 1.200
186 24 20.863570 -0.925477 4.428475 1 1 1.200
187 24 24.716533 4.887824 3.037974 1 1 1.200
188 24 20.046455 2.965275 4.024694 1 1 1.200
189 24 22.042814 -0.157281 -2.695911 1 1 1.200
190 24 20.988018 3.926507 -6.051373 1 1 1.200
191 24 23.760090 5.175971 -0.712685 1 1 1.200
192 24 23.828652 -1.741878 2.916065 1 1 1.200
193 24 23.477653 0.214469 -6.939277 1 1 1.200
194 24 21.156293 1.497128 -3.352413 1 1 1.200
195 24 19.065416 -1.077640 -5.116866 1 1 1.200
196 24 24.506085 3.560415 -1.027769 1 1 1.200
197 24 21.755609 -2.010723 -6.116778 1 1 1.200
198 24 22.431440 2.102029 3.101248 1 1 1.200
199 24 21.795392 5.935926 0.144460 1 1 1.200
200 24 18.704858 2.288250 -3.479245 1 1 1.200
201 24 20.684441 2.034221 1.348849 1 1 1.200
202 24 20.782645 -0.637573 2.833653 1 1 1.200
203 24 20.380188 0.513413 4.375389 1 1 1.200
204 24 22.078321 5.366073 3.505664 1 1 1.200
205 24 22.678894 -0.588862 -0.443490 1 1 1.200
206 24 21.147623 7.746242 0.339512 1 1 1.200
207 24 20.094540 6.436838 0.644940 1 1 1.200
208 24 20.856694 5.078714 1.753835 1 1 1.200
209 24 24.279961 1.829459 2.216910 1 1 1.200
210 24 23.158451 -2.795042 2.074668 1 1 1.200
211 24 21.241289 7.840861 1.863344 1 1 1.200
212 24 21.739461 6.210156 1.618393 1 1 1.200
213 24 24.895260 -1.749984 1.032359 1 1 1.200
214 24 20.503390 6.496244 -5.238900 1 1 1.200
215 24 22.137650 -1.654736 -3.171802 1 1 1.200
216 24 24.569078 4.742268 1.419261 1 1 1.200
217 24 22.733793 -0.534124 2.217129 1 1 1.200
218 24 21.307994 -0.799109 1.305280 1 1 1.200
219 24 22.384526 -1.883035 1.468374 1 1 1.200
220 24 21.275584 6.521447 -4.075425 1 1 1.200
221 24 25.090185 6.016003 -0.422963 1 1 1.200
222 24 19.804544 0.900484 -4.144907 1 1 1.200
223 24 26.524596 2.704242 -1.931640 1 1 1.200
224 24 20.088112 6.593157 2.237389 1 1 1.200
225 24 23.603414 2.382631 -5.748800 1 1 1.200
226 24 23.318921 1.818801 -3.050574 1 1 1.200
227 24 24.335652 -0.038613 0.739110 1 1 1.200
228 24 24.594749 3.256454 2.168603 1 1 1.200
229 24 20.006629 6.158518 -1.461385 1 1 1.200
230 24 25.669638 1.696376 2.778412 1 1 1.200
231 24 25.968698 2.576255 1.237113 1 1 1.200
232 24 24.711942 3.413148 -5.987146 1 1 1.200
233 24 25.811729 3.601427 2.833126 1 1 1.200
234 24 22.902463 4.075400 -5.374439 1 1 1.200
235 24 20.091731 1.113363 0.274022 1 1 1.200
236 24 19.184782 4.602541 -0.393073 1 1 1.200
237 24 24.515297 -0.507546 -0.951273 1 1 1.200
238 24 22.928992 7.602795 1.891962 1 1 1.200
239 24 23.153651 6.272680 2.828503 1 1 1.200
240 24 19.757315 -0.227879 -6.439339 1 1 1.200
241 24 20.972824 5.053172 -3.642698 1 1 1.200
242 24 23.107479 0.714269 -1.310431 1 2 1.100
243 24 22.612110 1.755462 0.914994 1 2 1.100
244 24 23.447561 2.982959 0.211059 1 2 1.100
245 24 22.840480 3.310593 -2.138792 1 2 1.100
246 24 21.384432 3.557616 -1.741208 1 2 1.100
247 24 22.198013 3.914265 -0.250405 1 2 1.100
248 24 19.257173 4.439394 -2.902071 1 2 1.100
249 24 24.295125 1.550891 -4.211298 1 2 1.100
250 24 25.673860 -0.381126 1.471075 1 2 1.100
251 24 23.207280 -2.152726 -0.250652 1 2 1.100
252 24 19.820660 -2.796805 0.460464 1 2 1.100
253 24 22.763039 7.649182 0.262736 1 2 1.100
254 24 24.943935 -2.166668 -0.926442 1 2 1.100
255 24 21.856711 2.345672 4.872140 1 2 1.100
256 24 21.204876 3.876386 4.500371 1 2 1.100
257 24 20.450718 -2.367391 2.455100 1 2 1.100
258 24 21.489363 7.901368 -3.151928 1 2 1.100
259 24 23.243170 -0.778231 4.205055 1 2 1.100
260 24 19.380682 -0.392539 -2.715024 1 2 1.100
261 24 25.022064 5.529276 -2.914177 1 2 1.100
262 24 21.540416 4.623074 -7.173056 1 2 1.100
263 24 19.875689 5.260200 -4.983394 1 2 1.100
264 24 19.428609 3.788363 1.551527 1 2 1.100
265 24 21.379292 -0.646543 -4.028899 1 2 1.100
266 24 24.049263 6.839675 -1.164109 1 2 1.100
267 24 25.825488 4.421164 -1.424669 1 2 1.100
268 24 19.418719 1.974882 2.433582 1 2 1.100
269 24 21.384988 1.081531 -4.853484 1 2 1.100
270 24 22.742798 5.093063 -4.311439 1 2 1.100
271 24 26.252073 1.149019 -0.104075 1 2 1.100
272 24 18.906252 0.566733 0.925420 1 2 1.100
273 24 18.709342 0.840951 -1.399668 1 2 1.100
274 24 26.105031 0.728257 -2.377369 1 2 1.100
275 24 23.155698 -1.843157 -6.213579 1 2 1.100
276 24 19.080674 0.991341 -6.340993 1 2 1.100
277 24 20.739934 -3.809248 -4.457506 1 2 1.100
278 24 19.910793 2.220833 -7.701354 1 2 1.100
279 24 24.204595 -3.795199 -1.983807 1 2 1.100
280 24 21.618154 2.799744 -8.411447 1 2 1.100
281 24 22.982416 -3.944346 -3.538736 1 2 1.100
282 24 22.990239 -4.402975 -0.614490 1 2 1.100
283 24 21.601837 -4.616869 -2.383724 1 2 1.100
284 24 24.645948 0.429454 -6.396093 1 2 1.100
285 24 22.031295 2.628926 -6.038960 1 2 1.100
286 24 23.667226 4.976346 -6.535663 1 2 1.100
287 24 22.308256 -3.137480 -5.504333 1 2 1.100
288 24 19.895615 -0.514080 -7.677877 1 2 1.100
289 24 19.243155 -2.720461 -3.960650 1 2 1.100
290 24 21.700859 -1.602811 -7.366017 1 2 1.100
291 24 22.238909 0.616119 -7.471597 1 5 1.700
292 24 20.240177 -1.543022 -5.794697 1 6 1.700
293 24 22.361613 2.190658 -0.682705 1 7 1.800
294 24 22.235910 1.875289 -1.449306 1 4 2.800
295 29 -12.379283 -19.768655 3.373295 2 1 1.200
296 29 -11.962032 -21.574752 -1.347808 2 1 1.200
297 29 -14.344515 -21.721946 1.209893 2 1 1.200
298 29 -11.612851 -20.528984 1.335802 2 1 1.200
299 29 -15.419527 -22.381571 0.555209 2 1 1.200
300 29 -13.523315 -22.813610 0.715837 2 1 1.200
301 29 -12.324403 -18.255447 -1.459852 2 1 1.200
302 29 -16.833111 -18.011519 0.125729 2 1 1.200
303 29 -13.340879 -20.055634 -2.319971 2 1 1.200
304 29 -11.509024 -19.656152 4.272785 2 1 1.200
305 29 -13.334946 -21.147001 3.855401 2 2 1.100
306 29 -15.003499 -18.103029 3.375828 2 2 1.100
307 29 -12.251727 -18.517235 2.354083 2 2 1.100
308 29 -13.702596 -17.538240 2.819991 2 2 1.100
309 29 -15.985652 -19.474582 3.878633 2 2 1.100
310 29 -13.286057 -18.197158 1.354652 2 2 1.100
311 29 -15.443949 -20.194847 2.439032 2 2 1.100
312 29 -13.299063 -19.994873 1.312843 2 2 1.100
313 29 -12.977526 -18.620682 -3.838413 2 2 1.100
314 29 -14.599589 -19.477044 -2.231110 2 2 1.100
315 29 -14.884839 -18.590002 4.740303 2 2 1.100
316 29 -13.833907 -21.334326 -3.545469 2 2 1.100
317 29 -13.459418 -20.965978 -0.917190 2 2 1.100
318 29 -16.136559 -19.957077 -0.423608 2 2 1.100
319 29 -16.415008 -18.598265 1.490033 2 2 1.100
320 29 -17.096532 -17.801910 2.956606 2 2 1.100
321 29 -18.410573 -18.953650 0.471699 2 2 1.100
322 29 -15.198663 -17.964433 -0.585740 2 2 1.100
323 29 -17.704561 -16.627680 1.887365 2 2 1.100
324 29 -17.645760 -17.081479 -2.155100 2 2 1.100
325 29 -15.011846 -20.656094 4.085842 2 2 1.100
326 29 -11.557177 -22.066157 0.897943 2 2 1.100
327 29 -10.838558 -21.076849 2.326569 2 2 1.100
328 29 -15.327222 -17.478030 1.252153 2 2 1.100
329 29 -13.515722 -18.026609 -2.414928 2 2 1.100
330 29 -15.409208 -19.826334 -3.722774 2 2 1.100
331 29 -14.566467 -18.345670 -3.807758 2 2 1.100
332 29 -12.607409 -19.547908 -0.881509 2 2 1.100
333 29 -11.232716 -20.040413 -1.731496 2 2 1.100
334 29 -14.634532 -21.724262 -1.567614 2 2 1.100
335 29 -18.273118 -16.807456 -0.841984 2 2 1.100
336 29 -14.015804 -19.866250 -4.411993 2 2 1.100
337 29 -12.490759 -20.279182 -4.000039 2 2 1.100
338 29 -15.269704 -21.068468 -2.736403 2 2 1.100
339 29 -13.106288 -21.407732 2.447345 2 2 1.100
340 29 -10.942533 -19.233020 0.858072 2 2 1.100
341 29 -13.289845 -18.350371 4.069998 2 2 1.100
342 29 -13.778953 -19.779499 4.636540 2 2 1.100
343 29 -16.161587 -16.564298 2.258681 2 2 1.100
344 29 -10.514900 -20.823384 0.271768 2 2 1.100
345 29 -18.291666 -18.124593 1.925065 2 2 1.100
346 29 -13.177729 -22.121363 -2.258553 2 2 1.100
347 29 -15.377545 -16.778171 -1.670624 2 2 1.100
348 29 -11.819496 -21.152421 -2.908149 2 2 1.100
349 29 -11.781713 -19.143926 -2.880018 2 2 1.100
350 29 -18.402913 -18.501142 -1.096231 2 2 1.100
351 29 -16.010734 -16.172718 0.562555 2 2 1.100
352 29 -16.656433 -16.237746 -1.037500 2 2 1.100
353 29 -17.540644 -16.096534 0.430624 2 2 1.100
354 29 -17.799431 -20.191725 -0.095390 2 2 1.100
355 29 -16.321822 -17.525055 -2.749930 2 2 1.100
356 29 -17.243763 -20.033349 -1.555596 2 2 1.100
357 29 -16.738378 -20.322896 0.980355 2 2 1.100
358 29 -17.637435 -19.553309 2.064022 2 2 1.100
359 29 -14.564924 -16.742196 -0.010334 2 2 1.100
360 29 -17.490395 -18.761464 -2.517424 2 2 1.100
361 29 -16.431587 -18.510533 -1.357004 2 2 1.100
362 29 -18.681265 -17.368726 0.527331 2 2 1.100
363 29 -14.939093 -21.571351 2.789666 2 2 1.100
364 29 -14.004282 -19.643583 2.519162 2 3 2.400
365 29 -14.661767 -19.315005 0.204160 2 4 2.800
366 28 -3.282235 -24.373035 6.187626 3 1 1.200
367 28 -5.751858 -23.251535 5.804705 3 1 1.200
368 28 -2.820443 -23.889516 8.761435 3 1 1.200
369 28 -4.834793 -22.254826 5.960714 3 1 1.200
370 28 -5.385858 -22.703098 10.078922 3 1 1.200
371 28 -5.689149 -22.450895 8.563167 3 1 1.200
372 28 -4.123162 -21.096225 6.030468 3 1 1.200
373 28 -3.981660 -22.420769 9.429474 3 1 1.200
374 28 -1.147141 -22.190087 7.915366 3 1 1.200
375 28 -3.548761 -23.082368 5.537076 3 8 2.000
376 28 -0.968189 -21.454139 9.580276 3 2 1.100
377 28 -2.584380 -20.327210 9.719397 3 2 1.100
378 28 -2.638333 -20.531471 7.762072 3 2 1.100
379 28 -5.890949 -21.746443 6.797283 3 2 1.100
380 28 -4.883071 -21.073710 10.123254 3 2 1.100
381 28 -4.694386 -20.988795 8.585544 3 2 1.100
382 28 -0.609259 -23.406436 7.922134 3 2 1.100
383 28 -4.711568 -23.847161 8.571850 3 2 1.100
384 28 -3.764594 -23.689677 10.178429 3 2 1.100
385 28 -2.038843 -24.597097 6.594221 3 2 1.100
386 28 -4.477834 -24.785425 6.613646 3 2 1.100
387 28 -2.299788 -22.850997 10.098154 3 2 1.100
388 28 -3.886133 -23.475733 4.366752 3 2 1.100
389 28 -2.250922 -22.722112 5.288838 3 2 1.100
390 28 -3.484105 -21.729299 10.825499 3 2 1.100
391 28 -1.107328 -21.896301 6.653828 3 2 1.100
392 28 -2.236821 -21.401591 8.852929 3 3 2.400
393 28 -3.441886 -22.527995 7.831928 3 4 2.800
394 30 9.464666 -16.232151 -3.912402 4 1 1.200
395 30 13.488573 -17.321749 -4.445148 4 1 1.200
396 30 8.253425 -19.123769 -1.607264 4 1 1.200
397 30 11.215017 -21.646108 -0.569191 4 1 1.200
398 30 8.308865 -22.433345 -0.404395 4 1 1.200
399 30 3.212994 -21.462997 -4.786201 4 1 1.200
400 30 9.951558 -22.653568 -2.905822 4 1 1.200
401 30 6.872974 -16.323261 -6.976351 4 1 1.200
402 30 6.312230 -20.742889 -0.500909 4 1 1.200
403 30 3.345789 -22.032185 -3.043369 4 1 1.200
404 30 6.216245 -14.813203 -10.073598 4 1 1.200
405 30 8.998258 -17.183417 -6.231605 4 1 1.200
406 30 8.262331 -17.211351 -2.102353 4 1 1.200
407 30 5.057062 -19.351011 -0.753106 4 1 1.200
408 30 11.017908 -23.436157 -7.262269 4 1 1.200
409 30 2.609190 -22.937033 -3.958111 4 1 1.200
410 30 13.512530 -22.198843 -6.375276 4 1 1.200
411 30 8.894762 -19.587013 0.043661 4 1 1.200
412 30 3.639080 -19.818470 -4.845485 4 1 1.200
413 30 10.752806 -18.482247 -1.605812 4 1 1.200
414 30 3.686638 -18.554561 -3.561820 4 1 1.200
415 30 8.823451 -20.576779 -9.006675 4 1 1.200
416 30 5.584558 -23.630017 -7.127236 4 1 1.200
417 30 1.449634 -20.594191 -8.875705 4 1 1.200
418 30 4.950623 -20.830828 -4.736521 4 1 1.200
419 30 9.417290 -16.193064 -1.766352 4 1 1.200
420 30 8.935398 -13.890509 -8.986566 4 1 1.200
421 30 2.772679 -21.698746 -1.665389 4 1 1.200
422 30 14.079132 -16.450541 -9.103814 4 1 1.200
423 30 9.825979 -15.945964 -5.456922 4 1 1.200
424 30 11.577434 -21.681675 -6.198654 4 1 1.200
425 30 9.414841 -14.749425 -7.413567 4 1 1.200
426 30 10.391371 -21.118379 -9.844246 4 1 1.200
427 30 11.118497 -17.020204 -1.344850 4 1 1.200
428 30 7.277986 -16.259250 -2.003456 4 1 1.200
429 30 11.262315 -13.914368 -7.273281 4 1 1.200
430 30 3.727155 -20.405005 -1.106084 4 1 1.200
431 30 4.829875 -19.624511 -3.494345 4 1 1.200
432 30 4.557208 -22.223304 -4.148826 4 1 1.200
433 30 13.013779 -21.299993 -5.417761 4 1 1.200
434 30 3.549452 -19.170768 -2.028871 4 1 1.200
435 30 4.246564 -22.176977 -0.999527 4 1 1.200
436 30 4.359987 -20.960917 -2.779136 4 1 1.200
437 30 6.981132 -23.944410 -9.437552 4 1 1.200
438 30 7.172679 -15.652870 -9.365079 4 1 1.200
439 30 10.441402 -13.553119 -8.635766 4 1 1.200
440 30 5.796072 -21.542018 -1.914653 4 1 1.200
441 30 4.802034 -23.402919 -5.742070 4 1 1.200
442 30 8.424614 -21.204881 -6.493970 4 1 1.200
443 30 5.021436 -17.737501 -5.501594 4 1 1.200
444 30 11.084081 -18.524548 -10.237458 4 1 1.200
445 30 4.214977 -19.391582 -10.230014 4 1 1.200
446 30 7.566477 -19.222604 0.113840 4 1 1.200
447 30 5.354826 -23.360114 -1.956633 4 1 1.200
448 30 7.149661 -17.577442 -0.884527 4 1 1.200
449 30 12.248255 -19.401729 -1.367378 4 1 1.200
450 30 6.847795 -15.298414 -11.709339 4 1 1.200
451 30 4.985200 -18.531947 -2.206197 4 1 1.200
452 30 7.711074 -14.381067 -10.764604 4 1 1.200
453 30 8.780505 -17.260073 -0.547272 4 1 1.200
454 30 7.998394 -14.397610 -7.648572 4 1 1.200
455 30 2.430434 -19.509181 -3.823162 4 2 1.100
456 30 7.646832 -17.959162 -7.097097 4 2 1.100
457 30 6.519906 -19.013126 -4.859787 4 2 1.100
458 30 10.111393 -17.971360 -5.195441 4 2 1.100
459 30 7.258160 -18.357726 -3.428123 4 2 1.100
460 30 6.289655 -18.262534 -6.412385 4 2 1.100
461 30 8.033213 -15.690085 -5.383725 4 2 1.100
462 30 6.089207 -17.405097 -4.061342 4 2 1.100
463 30 12.394509 -23.189151 -6.680289 4 2 1.100
464 30 9.693916 -19.536477 -5.315419 4 2 1.100
465 30 7.753890 -20.222798 -5.085098 4 2 1.100
466 30 10.781929 -21.101597 -12.319769 4 2 1.100
467 30 5.770952 -22.418294 -0.587966 4 2 1.100
468 30 9.766714 -17.941341 -13.617032 4 2 1.100
469 30 12.443531 -21.324954 -3.141638 4 2 1.100
470 30 10.727126 -22.905393 -1.236467 4 2 1.100
471 30 11.670517 -19.039953 -11.669993 4 2 1.100
472 30 2.682258 -17.435936 -8.793295 4 2 1.100
473 30 8.207413 -22.303658 -2.163325 4 2 1.100
474 30 3.746399 -20.213212 -12.732286 4 2 1.100
475 30 5.208655 -19.406351 -8.383217 4 2 1.100
476 30 4.091239 -18.640019 -13.032091 4 2 1.100
477 30 2.650359 -17.616581 -10.481607 4 2 1.100
478 30 15.267434 -17.102117 -6.174989 4 2 1.100
479 30 1.790117 -20.458110 -10.724405 4 2 1.100
480 30 6.261487 -21.489408 -10.179383 4 2 1.100
481 30 3.935966 -19.795101 -7.538006 4 2 1.100
482 30 10.984530 -16.951433 -9.494859 4 2 1.100
483 30 3.479575 -18.744536 -9.060775 4 2 1.100
484 30 10.973672 -20.650568 -3.357918 4 2 1.100
485 30 2.963654 -23.772726 -7.450051 4 2 1.100
486 30 10.338606 -18.142666 -0.054479 4 2 1.100
487 30 5.654198 -23.049530 -8.579320 4 2 1.100
488 30 5.370817 -24.449471 -9.245149 4 2 1.100
489 30 4.972730 -22.469691 -10.917314 4 2 1.100
490 30 2.389883 -20.510343 -7.694932 4 2 1.100
491 30 8.291206 -17.349714 -9.642196 4 2 1.100
492 30 11.552965 -15.746574 -8.346406 4 2 1.100
493 30 12.423455 -19.705160 -9.078051 4 2 1.100
494 30 11.540158 -16.999124 -11.257828 4 2 1.100
495 30 11.305959 -18.438226 -8.571734 4 2 1.100
496 30 10.294293 -21.082553 -8.208109 4 2 1.100
497 30 10.958723 -15.484221 -12.273869 4 2 1.100
498 30 13.195039 -19.181326 -7.565948 4 2 1.100
499 30 12.968365 -21.535620 -9.642074 4 2 1.100
500 30 8.269705 -18.064659 -11.266602 4 2 1.100
501 30 13.782511 -17.050365 -10.982602 4 2 1.100
502 30 9.083372 -16.044521 -10.237587 4 2 1.100
503 30 9.950210 -16.780825 -11.214684 4 2 1.100
504 30 9.065283 -21.408602 -11.894242 4 2 1.100
505 30 11.893793 -21.577459 -8.633334 4 2 1.100
506 30 12.646770 -15.007510 -9.124578 4 2 1.100
507 30 13.538723 -20.225517 -10.426036 4 2 1.100
508 30 11.732977 -14.834758 -10.899778 4 2 1.100
509 30 9.615943 -15.209810 -11.609263 4 2 1.100
510 30 12.849808 -16.696635 -8.010836 4 2 1.100
511 30 12.711284 -18.248265 -10.381053 4 2 1.100
512 30 8.463048 -18.397558 -13.001532 4 2 1.100
513 30 9.547952 -16.310105 -13.068948 4 2 1.100
514 30 11.697485 -20.215709 -7.627862 4 2 1.100
515 30 13.508770 -20.700518 -8.153594 4 2 1.100
516 30 12.349372 -20.408797 -11.938429 4 2 1.100
517 30 10.311049 -20.228474 -11.228793 4 2 1.100
518 30 6.025957 -18.948589 -13.037617 4 2 1.100
519 30 10.603102 -21.003508 -1.856060 4 2 1.100
520 30 13.364555 -15.515746 -10.445506 4 2 1.100
521 30 10.196226 -19.625726 -9.431590 4 2 1.100
522 30 4.843265 -25.163896 -6.167006 4 2 1.100
523 30 4.845728 -19.259456 -11.779057 4 2 1.100
524 30 7.153387 -23.036161 -7.985486 4 2 1.100
525 30 11.035817 -23.266543 -5.038619 4 2 1.100
526 30 5.723913 -20.727561 -8.883330 4 2 1.100
527 30 6.714790 -19.845875 -6.332696 4 2 1.100
528 30 7.586770 -24.329892 -6.845784 4 2 1.100
529 30 10.179858 -15.082796 -3.337575 4 2 1.100
530 30 8.361839 -21.953036 -3.974413 4 2 1.100
531 30 9.305111 -21.035657 -2.861716 4 2 1.100
532 30 9.193970 -24.416256 -2.172245 4 2 1.100
533 30 9.416199 -22.825593 -5.113109 4 2 1.100
534 30 11.620974 -18.665137 -7.063498 4 2 1.100
535 30 8.863551 -21.774923 -10.124015 4 2 1.100
536 30 11.580235 -18.788430 -13.120625 4 2 1.100
537 30 12.383926 -16.520693 -9.873352 4 2 1.100
538 30 11.305095 -16.946089 -13.076305 4 2 1.100
539 30 9.601872 -18.016351 -10.062640 4 2 1.100
540 30 5.583725 -20.449048 -12.946569 4 2 1.100
541 30 4.856472 -20.912930 -0.144819 4 2 1.100
542 30 2.554003 -18.643952 -11.855274 4 2 1.100
543 30 10.703381 -22.550727 -9.339454 4 2 1.100
544 30 6.147414 -25.129732 -7.892374 4 2 1.100
545 30 1.874260 -21.441188 -3.608243 4 2 1.100
546 30 11.758306 -24.021060 -3.907396 4 2 1.100
547 30 14.671375 -18.126267 -2.854367 4 2 1.100
548 30 14.302989 -19.821566 -4.677657 4 2 1.100
549 30 13.736267 -17.319923 -5.928335 4 2 1.100
550 30 13.947741 -19.451188 -3.101535 4 2 1.100
551 30 15.227293 -17.057440 -4.412582 4 2 1.100
552 30 15.181940 -18.618381 -4.315086 4 2 1.100
553 30 11.928539 -17.237330 -3.765796 4 2 1.100
554 30 13.845886 -15.396719 -4.009501 4 2 1.100
555 30 14.790730 -15.738716 -5.232048 4 2 1.100
556 30 14.307344 -16.540492 -2.995531 4 2 1.100
557 30 13.044356 -18.817897 -5.151282 4 2 1.100
558 30 13.990510 -15.516483 -6.451059 4 2 1.100
559 30 12.327262 -16.544376 -5.343347 4 2 1.100
560 30 12.741218 -16.229766 -2.568388 4 2 1.100
561 30 13.244668 -17.800228 -2.401349 4 2 1.100
562 30 12.282934 -15.500436 -3.897485 4 2 1.100
563 30 14.906129 -18.769626 -5.852840 4 2 1.100
564 30 13.000667 -14.949175 -5.390295 4 2 1.100
565 30 7.434742 -17.108845 -5.502446 4 2 1.100
566 30 12.534791 -18.731665 -3.724765 4 2 1.100
567 30 14.263927 -19.617353 -9.076922 4 2 1.100
568 30 5.878227 -15.435744 -7.567391 4 2 1.100
569 30 3.658617 -23.240635 -2.057520 4 2 1.100
570 30 11.988926 -23.110976 -2.235910 4 2 1.100
571 30 7.885759 -23.765894 -1.413400 4 2 1.100
572 30 3.851277 -16.493106 -10.495683 4 2 1.100
573 30 9.818948 -18.546041 -3.706816 4 2 1.100
574 30 5.829347 -22.485382 -3.328094 4 2 1.100
575 30 6.084992 -19.402498 -9.948793 4 2 1.100
576 30 6.598010 -23.357966 -5.813114 4 2 1.100
577 30 8.910813 -22.684011 -7.318835 4 2 1.100
578 30 8.391798 -19.410628 -3.837986 4 2 1.100
579 30 6.066054 -16.422738 -5.491739 4 2 1.100
580 30 2.948206 -20.225005 -9.530986 4 2 1.100
581 30 10.115715 -19.382195 -7.845627 4 2 1.100
582 30 12.842376 -18.000104 -8.811590 4 2 1.100
583 30 2.891704 -22.651910 -6.575523 4 2 1.100
584 30 1.791605 -18.883984 -10.238475 4 2 1.100
585 30 4.222825 -17.946474 -7.858274 4 2 1.100
586 30 6.007690 -19.876340 -1.962258 4 2 1.100
587 30 4.360926 -24.822852 -7.640373 4 2 1.100
588 30 10.741198 -14.658580 -5.302067 4 2 1.100
589 30 6.213557 -21.696287 -11.827913 4 2 1.100
590 30 2.621464 -18.727351 -7.453452 4 2 1.100
591 30 2.342618 -21.815528 -9.420398 4 2 1.100
592 30 4.412135 -23.687344 -3.322962 4 2 1.100
593 30 3.543647 -17.404565 -5.636405 4 2 1.100
594 30 4.380734 -18.010038 -10.669030 4 2 1.100
595 30 1.656250 -18.988636 -8.632691 4 2 1.100
596 30 12.561434 -16.034940 -11.943917 4 2 1.100
597 30 14.376251 -18.154755 -9.960949 4 2 1.100
598 30 11.148800 -17.112458 -7.550016 4 2 1.100
599 30 4.022051 -20.983475 -8.617813 4 2 1.100
600 30 7.807762 -24.674761 -8.274373 4 2 1.100
601 30 5.094890 -16.649112 -11.803875 4 2 1.100
602 30 6.606953 -25.323891 -6.271135 4 2 1.100
603 30 12.127371 -18.100296 -0.575698 4 2 1.100
604 30 8.422530 -16.774433 -12.203055 4 2 1.100
605 30 10.208318 -19.685247 -13.116437 4 2 1.100
606 30 10.048630 -24.487953 -5.485969 4 2 1.100
607 30 5.641027 -18.077171 -9.068417 4 2 1.100
608 30 2.541361 -20.330876 -2.528546 4 2 1.100
609 30 2.009281 -20.562585 -4.968891 4 2 1.100
610 30 5.416183 -17.541366 -12.977164 4 2 1.100
611 30 10.085155 -22.356518 -10.931196 4 2 1.100
612 30 6.064859 -22.093168 -6.814201 4 2 1.100
613 30 5.753728 -24.715787 -4.980870 4 2 1.100
614 30 3.021511 -21.610799 -11.252054 4 2 1.100
615 30 5.519213 -16.978560 -10.142925 4 2 1.100
616 30 12.781922 -22.737609 -3.765460 4 2 1.100
617 30 6.092713 -20.849415 -3.359569 4 2 1.100
618 30 8.520173 -20.122141 -10.829811 4 2 1.100
619 30 3.072556 -19.963678 -11.421044 4 2 1.100
620 30 3.617123 -17.378390 -12.093415 4 2 1.100
621 30 3.477869 -24.243774 -5.872525 4 2 1.100
622 30 9.669568 -13.792829 -6.549812 4 2 1.100
623 30 6.052361 -18.123074 -11.349424 4 2 1.100
624 30 10.743228 -24.160084 -2.328746 4 2 1.100
625 30 8.984227 -21.179828 -1.331787 4 2 1.100
626 30 8.422203 -23.278206 -3.459590 4 2 1.100
627 30 8.839654 -25.056433 -3.657100 4 2 1.100
628 30 10.160803 -21.554607 -4.540531 4 2 1.100
629 30 12.343192 -21.678649 -1.691136 4 2 1.100
630 30 7.489466 -24.332401 -2.932385 4 2 1.100
631 30 6.272192 -20.060555 -11.463761 4 2 1.100
632 30 8.648793 -17.521863 -3.994220 4 2 1.100
633 30 12.772721 -17.762744 -12.300467 4 2 1.100
634 30 11.818488 -20.285202 -10.345422 4 2 1.100
635 30 9.819351 -16.275272 -8.712556 4 2 1.100
636 30 10.308165 -17.945845 -12.186903 4 2 1.100
637 30 8.723568 -20.048140 -12.729977 4 2 1.100
638 30 4.497754 -21.477043 -12.088400 4 2 1.100
639 30 8.460749 -19.056988 -9.382810 4 2 1.100
640 30 14.337746 -18.088850 -8.341406 4 2 1.100
641 30 9.448718 -19.015992 -11.498038 4 2 1.100
642 30 13.538846 -19.015138 -11.444410 4 2 1.100
643 30 10.661421 -15.263211 -10.052155 4 2 1.100
644 30 9.537367 -17.823270 -8.345282 4 2 1.100
645 30 3.952623 -23.661413 -8.615500 4 2 1.100
646 30 11.052794 -19.485394 -0.075186 4 2 1.100
647 30 4.282133 -16.805700 -8.917466 4 2 1.100
648 30 11.745865 -21.860423 -10.793085 4 2 1.100
649 30 4.400405 -22.368723 -7.041302 4 2 1.100
650 30 3.815761 -21.987468 -9.926064 4 2 1.100
651 30 4.810568 -20.768031 -10.504362 4 2 1.100
652 30 9.720555 -21.796373 -0.084321 4 2 1.100
653 30 10.264710 -24.465564 -3.870603 4 2 1.100
654 30 9.465321 -23.517381 -0.825527 4 2 1.100
655 30 11.263032 -22.274373 -3.748864 4 2 1.100
656 30 7.321199 -16.332930 -4.022399 4 2 1.100
657 30 8.552778 -24.100078 -4.807274 4 2 1.100
658 30 8.146405 -18.369638 -5.316541 4 3 2.400
659 30 8.407234 -19.552535 -6.788270 4 4 2.800
660 21 -23.475404 -9.758244 -0.223815 5 4 2.800
661 26 2.813812 7.659690 12.366465 6 1 1.200
662 26 -1.143708 1.960449 2.567962 6 1 1.200
663 26 -5.743613 2.333833 -5.662825 6 1 1.200
664 26 -9.119890 1.119249 -11.562808 6 1 1.200
665 26 -6.909958 1.889007 -6.640194 6 1 1.200
666 26 3.882141 11.042320 6.024056 6 1 1.200
667 26 -3.444616 -9.463337 1.191215 6 1 1.200
668 26 7.457349 -1.694273 -4.449494 6 1 1.200
669 26 9.333690 0.605641 -4.342181 6 1 1.200
670 26 7.967788 -2.568762 -5.748932 6 1 1.200
671 26 2.286646 4.506287 -1.816054 6 1 1.200
672 26 6.137022 3.614344 2.732977 6 1 1.200
673 26 9.014487 -0.632070 -0.762406 6 1 1.200
674 26 8.517714 1.392742 -5.711132 6 1 1.200
675 26 7.275386 0.644214 -6.478475 6 1 1.200
676 26 7.709275 -1.296100 -7.450892 6 1 1.200
677 26 10.276963 1.695221 2.421026 6 1 1.200
678 26 5.129739 -0.202263 1.930477 6 1 1.200
679 26 8.475763 2.009537 6.430040 6 1 1.200
680 26 9.317770 1.940565 7.740255 6 1 1.200
681 26 4.136036 4.147861 -0.972745 6 1 1.200
682 26 8.214750 -0.332741 -5.365630 6 1 1.200
683 26 6.955447 -1.129122 -5.904579 6 1 1.200
684 26 8.091641 0.161001 -7.899882 6 1 1.200
685 26 7.540107 0.742150 1.072606 6 1 1.200
686 26 9.053833 -1.671268 -4.680150 6 1 1.200
687 26 8.518892 0.289725 7.317827 6 1 1.200
688 26 8.909877 -1.127206 -6.631270 6 1 1.200
689 26 2.493989 3.094553 -3.495016 6 1 1.200
690 26 9.690102 0.020719 -5.711302 6 1 1.200
691 26 9.008799 1.652747 1.810041 6 1 1.200
692 26 8.995611 1.118341 -7.092168 6 1 1.200
693 26 6.991115 7.982924 -2.585552 6 1 1.200
694 26 -3.828963 3.944634 -14.262814 6 1 1.200
695 26 -5.247260 4.613601 8.037371 6 1 1.200
696 26 -7.987667 2.236079 8.041549 6 1 1.200
697 26 -6.982989 9.082485 6.351530 6 1 1.200
698 26 -8.042347 7.755313 2.995825 6 1 1.200
699 26 2.597022 -3.947493 -1.513289 6 1 1.200
700 26 -14.097196 5.897736 8.645975 6 1 1.200
701 26 -0.974501 2.761165 -3.791015 6 1 1.200
702 26 -5.722250 6.767145 0.538515 6 1 1.200
703 26 -9.050894 7.587371 5.289512 6 1 1.200
704 26 -8.722295 3.179808 13.888949 6 1 1.200
705 26 5.826120 3.901146 9.334939 6 1 1.200
706 26 -11.198880 8.114282 3.315365 6 1 1.200
707 26 -7.776146 -5.110538 5.743443 6 1 1.200
708 26 -7.117234 14.921648 7.390996 6 1 1.200
709 26 -6.204721 5.893015 7.518853 6 1 1.200
710 26 -5.521626 0.935772 2.281513 6 1 1.200
711 26 -11.727732 6.906654 8.587343 6 1 1.200
712 26 -9.429390 -2.327656 -0.032776 6 1 1.200
713 26 -7.193883 16.704101 0.888991 6 1 1.200
714 26 -1.386548 11.019038 -3.148908 6 1 1.200
715 26 -7.786135 14.160785 9.324392 6 1 1.200
716 26 1.532471 7.845938 1.575949 6 1 1.200
717 26 -2.025320 -1.467821 13.747411 6 1 1.200
718 26 -7.130756 -9.823347 1.774983 6 1 1.200
719 26 -1.342030 -3.887318 -2.256357 6 1 1.200
720 26 3.426348 3.615520 7.996525 6 1 1.200
721 26 -9.520643 3.034340 8.829168 6 1 1.200
722 26 -4.440773 2.723755 9.797947 6 1 1.200
723 26 5.024212 -3.535158 6.376279 6 1 1.200
724 26 0.244953 -8.334893 3.329642 6 1 1.200
725 26 -15.084111 -2.611160 -2.201989 6 1 1.200
726 26 -4.044836 -2.389557 9.432094 6 1 1.200
727 26 -8.136851 -4.967155 -6.744875 6 1 1.200
728 26 -2.713893 2.375989 2.467287 6 1 1.200
729 26 -6.738151 -0.280270 7.875829 6 1 1.200
730 26 -6.479152 7.370498 6.584916 6 1 1.200
731 26 2.667954 0.537779 3.930180 6 1 1.200
732 26 -2.896548 11.400825 5.866244 6 1 1.200
733 26 1.303473 -1.132174 -3.619904 6 1 1.200
734 26 -3.665152 -6.268753 4.460094 6 1 1.200
735 26 0.619164 -7.245817 0.186851 6 1 1.200
736 26 -10.274469 10.253751 -9.136430 6 1 1.200
737 26 -10.872075 8.124293 -11.134062 6 1 1.200
738 26 -5.119761 -2.480348 11.524579 6 1 1.200
739 26 -6.515225 -1.051059 -3.509352 6 1 1.200
740 26 -9.354173 11.846615 9.596557 6 1 1.200
741 26 1.200296 -9.163587 4.068540 6 1 1.200
742 26 -0.776926 -1.861952 0.336065 6 1 1.200
743 26 -0.126029 9.352229 11.082143 6 1 1.200
744 26 -1.179841 -0.529678 -1.935219 6 1 1.200
745 26 -0.990565 -7.515034 -4.014885 6 1 1.200
746 26 -4.682886 0.663642 -7.066642 6 1 1.200
747 26 3.844692 0.933630 -2.758845 6 1 1.200
748 26 -5.484096 6.732990 2.056447 6 1 1.200
749 26 3.547463 5.271185 9.342953 6 1 1.200
750 26 -5.562812 -2.272369 -3.466584 6 1 1.200
751 26 -9.985004 -5.591407 3.219191 6 1 1.200
752 26 -3.925160 3.679632 5.830459 6 1 1.200
753 26 -6.306984 6.786753 4.867096 6 1 1.200
754 26 -2.466472 -1.111450 1.711357 6 1 1.200
755 26 -2.791736 13.680760 7.961122 6 1 1.200
756 26 -7.263630 12.834075 8.960067 6 1 1.200
757 26 4.588843 6.624183 12.447904 6 1 1.200
758 26 -1.494129 8.795523 -0.443309 6 1 1.200
759 26 -1.301444 -0.562430 -5.527836 6 1 1.200
760 26 -8.390205 7.614786 6.631849 6 1 1.200
761 26 1.158589 2.653433 5.057776 6 1 1.200
762 26 1.944328 15.338916 -0.817918 6 1 1.200
763 26 3.395978 -0.231501 -6.069349 6 1 1.200
764 26 0.352658 7.302320 5.484598 6 1 1.200
765 26 -0.019029 1.648319 10.571924 6 1 1.200
766 26 -12.660395 -0.835808 5.646234 6 1 1.200
767 26 4.403821 6.558878 8.855899 6 1 1.200
768 26 3.955423 9.355245 9.184483 6 1 1.200
769 26 -15.051846 8.912742 -0.589845 6 1 1.200
770 26 -5.567012 9.177856 11.044947 6 1 1.200
771 26 4.887421 4.126689 -9.226989 6 1 1.200
772 26 -1.098483 3.769330 -1.758549 6 1 1.200
773 26 -7.624371 5.864364 4.872681 6 1 1.200
774 26 -8.653066 0.155170 -7.103232 6 1 1.200
775 26 4.319134 -6.165415 2.611601 6 1 1.200
776 26 6.281026 12.727841 2.214123 6 1 1.200
777 26 -15.120727 0.424908 -4.720624 6 1 1.200
778 26 -2.273694 -0.151729 -3.724558 6 1 1.200
779 26 -1.685383 1.971341 4.516299 6 1 1.200
780 26 -5.078518 5.287630 3.784470 6 1 1.200
781 26 5.940270 -1.431519 6.397058 6 1 1.200
782 26 -8.882339 5.865381 5.448328 6 1 1.200
783 26 -6.089423 -7.265438 -1.081883 6 1 1.200
784 26 -11.463396 0.998235 0.557928 6 1 1.200
785 26 -12.360067 -4.528041 -1.534254 6 1 1.200
786 26 -3.930682 1.879918 13.330411 6 1 1.200
787 26 6.882057 -2.766318 5.286919 6 1 1.200
788 26 -1.501529 -9.776096 5.749421 6 1 1.200
789 26 2.671627 -6.570184 6.119464 6 1 1.200
790 26 0.718196 -4.254128 -2.166860 6 1 1.200
791 26 2.908725 1.717549 -11.636691 6 1 1.200
792 26 -7.778815 3.229547 3.658216 6 1 1.200
793 26 0.504386 1.961941 0.398110 6 1 1.200
794 26 -6.426773 1.811807 -0.187311 6 1 1.200
795 26 -0.196525 -0.087931 -3.955211 6 1 1.200
796 26 5.680091 14.807902 0.119304 6 1 1.200
797 26 -4.490541 3.073540 11.744081 6 1 1.200
798 26 -3.707617 8.265058 -2.750252 6 1 1.200
799 26 -3.995564 1.772145 5.856740 6 1 1.200
800 26 5.855030 -5.059064 -0.331040 6 1 1.200
801 26 -5.414655 8.723014 2.602271 6 1 1.200
802 26 -7.411543 14.587924 -0.052030 6 1 1.200
803 26 3.002511 6.009976 1.367455 6 1 1.200
804 26 3.042080 10.193239 1.202758 6 1 1.200
805 26 -2.614828 -1.820994 -6.483724 6 1 1.200
806 26 -1.552838 -7.888464 -2.332939 6 1 1.200
807 26 -1.892628 10.614076 2.972331 6 1 1.200
808 26 -4.355344 -3.731864 -3.215459 6 1 1.200
809 26 5.086251 0.901596 10.754663 6 1 1.200
810 26 -6.028425 1.520283 7.379153 6 1 1.200
811 26 -7.272674 3.422175 7.635361 6 1 1.200
812 26 -2.501298 -5.217789 0.925552 6 1 1.200
813 26 -2.599800 -0.661915 12.308272 6 1 1.200
814 26 -2.003665 6.090838 -10.211947 6 1 1.200
815 26 4.192694 2.736242 -0.568742 6 1 1.200
816 26 -2.285504 0.375035 9.080467 6 1 1.200
817 26 1.831126 12.215581 -8.207960 6 1 1.200
818 26 -6.922476 -5.691333 -1.154643 6 1 1.200
819 26 1.283995 -1.652440 -0.261486 6 1 1.200
820 26 2.695808 -0.009159 -9.233274 6 1 1.200
821 26 -7.039510 10.381089 -11.826722 6 1 1.200
822 26 7.455557 7.867303 5.004650 6 1 1.200
823 26 5.875385 -3.288982 -1.765034 6 1 1.200
824 26 -0.826472 0.625432 -0.891324 6 1 1.200
825 26 -7.437771 1.111003 -2.368203 6 1 1.200
826 26 0.337735 8.355922 -4.986960 6 1 1.200
827 26 -15.438491 6.711072 1.291050 6 1 1.200
828 26 5.904204 5.852021 12.061349 6 1 1.200
829 26 -4.499456 -1.906929 -4.300844 6 1 1.200
830 26 -6.011007 -3.833503 -2.251506 6 1 1.200
831 26 -7.048842 6.506083 3.195023 6 1 1.200
832 26 -14.655052 4.926881 3.918454 6 1 1.200
833 26 -0.845291 -3.613200 -7.629540 6 1 1.200
834 26 1.548520 14.554081 -2.314008 6 1 1.200
835 26 -2.924629 -2.140412 3.049074 6 1 1.200
836 26 -4.089972 2.429090 -3.951449 6 1 1.200
837 26 4.880997 -2.500339 3.299632 6 1 1.200
838 26 -0.509351 13.647906 9.222209 6 1 1.200
839 26 -11.884027 -5.515980 -0.675038 6 1 1.200
840 26 -4.370460 4.799964 0.704675 6 1 1.200
841 26 3.068767 -7.975418 5.536737 6 1 1.200
842 26 -1.794321 -6.009524 -2.506942 6 1 1.200
843 26 3.189903 1.366186 7.791163 6 1 1.200
844 26 -7.837079 4.906827 3.384273 6 1 1.200
845 26 -1.861252 1.128523 12.208932 6 1 1.200
846 26 -5.093242 -1.643593 -0.273361 6 1 1.200
847 26 -4.846270 5.312963 13.013616 6 1 1.200
848 26 -5.840658 -3.946702 3.653071 6 1 1.200
849 26 -6.940373 -2.532354 -2.671107 6 1 1.200
850 26 -6.817884 1.564206 4.325138 6 1 1.200
851 26 3.020570 14.578983 4.354892 6 1 1.200
852 26 -7.460051 11.751270 3.152167 6 1 1.200
853 26 6.485237 -4.252636 -3.742074 6 1 1.200
854 26 -2.071399 8.667208 2.094147 6 1 1.200
855 26 8.144795 4.144553 3.777697 6 1 1.200
856 26 -2.000701 5.211140 8.709119 6 1 1.200
857 26 -11.307196 -3.966612 1.524185 6 1 1.200
858 26 0.066260 13.989405 -6.117819 6 1 1.200
859 26 2.441497 -7.208726 4.534962 6 1 1.200
860 26 -7.049790 3.323067 5.318735 6 1 1.200
861 26 7.001088 9.871491 6.598760 6 1 1.200
862 26 -3.786492 9.242457 6.989593 6 1 1.200
863 26 6.705764 -0.182579 6.234050 6 1 1.200
864 26 -4.444630 -2.716732 7.541436 6 1 1.200
865 26 -0.485060 0.779663 6.701402 6 1 1.200
866 26 -10.222570 -4.181319 2.790418 6 1 1.200
867 26 0.700202 0.452793 -1.183794 6 1 1.200
868 26 -4.575262 7.030459 5.917050 6 1 1.200
869 26 -1.272843 12.108438 4.814977 6 1 1.200
870 26 -8.168100 1.692243 11.967270 6 1 1.200
871 26 -3.280152 1.582405 11.340874 6 1 1.200
872 26 0.620512 -3.869030 3.406534 6 1 1.200
873 26 -3.835356 9.671821 4.864992 6 1 1.200
874 26 1.193382 3.535667 8.157102 6 1 1.200
875 26 7.527010 -1.132669 4.200678 6 1 1.200
876 26 -2.878917 -6.924432 0.350980 6 1 1.200
877 26 3.548207 -2.513377 6.693164 6 1 1.200
878 26 -7.260477 -7.532755 4.748387 6 1 1.200
879 26 -0.949201 -6.104783 2.987244 6 1 1.200
880 26 -3.035694 -8.145341 1.475573 6 1 1.200
881 26 -5.626957 -5.926154 9.044232 6 1 1.200
882 26 -0.619243 -8.870314 4.615725 6 1 1.200
883 26 4.299557 -6.582789 5.695502 6 1 1.200
884 26 1.617047 -2.754133 2.038055 6 1 1.200
885 26 -6.534562 11.713938 -9.443057 6 1 1.200
886 26 7.816933 11.644637 4.257803 6 1 1.200
887 26 8.399120 6.839104 7.184471 6 1 1.200
888 26 0.068864 9.486260 0.582251 6 1 1.200
889 26 -0.347979 -1.387367 -12.402635 6 1 1.200
890 26 -0.577934 5.885312 12.280553 6 1 1.200
891 26 -2.671936 15.736405 2.600299 6 1 1.200
892 26 -13.095830 10.098068 4.887839 6 1 1.200
893 26 2.941396 11.216148 -4.656587 6 1 1.200
894 26 0.070709 -6.117985 -2.697750 6 1 1.200
895 26 8.485827 9.781905 6.568407 6 1 1.200
896 26 -8.332097 6.715190 10.326007 6 1 1.200
897 26 4.393799 1.405387 4.281531 6 1 1.200
898 26 3.934877 2.937017 2.324424 6 1 1.200
899 26 2.008419 12.555303 -1.848545 6 1 1.200
900 26 -1.796580 1.217276 0.311764 6 1 1.200
901 26 1.101850 0.853000 7.709984 6 1 1.200
902 26 -7.837572 -8.405539 1.336561 6 1 1.200
903 26 5.657125 1.121656 5.646628 6 1 1.200
904 26 6.353810 -3.659150 1.848054 6 1 1.200
905 26 -0.400794 12.419724 0.664314 6 1 1.200
906 26 -12.703857 -1.869944 -3.506082 6 1 1.200
907 26 -4.657594 14.639405 -6.986081 6 1 1.200
908 26 2.004750 -7.788060 -0.478088 6 1 1.200
909 26 3.738202 -6.161139 -4.372320 6 1 1.200
910 26 -3.798709 -7.959401 -4.170557 6 1 1.200
911 26 -5.539218 3.976949 5.294522 6 1 1.200
912 26 -9.905419 12.633236 -0.247437 6 1 1.200
913 26 -9.060973 -5.729895 8.194266 6 1 1.200
914 26 2.713539 -3.689971 -4.536992 6 1 1.200
915 26 1.131246 4.309987 12.051746 6 1 1.200
916 26 -0.679511 3.621390 9.251717 6 1 1.200
917 26 -10.061786 14.156896 4.705984 6 1 1.200
918 26 -6.211981 3.512753 2.857184 6 1 1.200
919 26 -9.871393 9.965778 -10.893215 6 1 1.200
920 26 0.446181 -3.840647 9.279186 6 1 1.200
921 26 8.098016 8.787296 7.599382 6 1 1.200
922 26 -0.266228 1.704534 1.597660 6 1 1.200
923 26 -3.583335 2.931561 -2.727293 6 1 1.200
924 26 -5.449093 -8.012900 7.456766 6 1 1.200
925 26 -8.493352 -2.577109 -1.195313 6 1 1.200
926 26 -5.026343 14.595844 -2.721904 6 1 1.200
927 26 4.741449 -3.102331 -7.897680 6 1 1.200
928 26 -11.200730 3.493410 1.049332 6 1 1.200
929 26 -2.708066 10.538905 7.828974 6 1 1.200
930 26 -3.516875 -2.208315 6.227258 6 1 1.200
931 26 3.694537 10.710695 2.682042 6 1 1.200
932 26 0.719139 -0.558724 3.326008 6 1 1.200
933 26 -4.992545 -10.128857 1.540843 6 1 1.200
934 26 -11.130430 6.777320 -4.187397 6 1 1.200
935 26 4.173396 -0.951238 5.651287 6 1 1.200
936 26 -6.954223 -6.190301 3.276095 6 1 1.200
937 26 -5.907824 -4.053769 5.537444 6 1 1.200
938 26 -7.541186 -8.643019 2.778409 6 1 1.200
939 26 0.181585 -2.906283 -3.752834 6 1 1.200
940 26 6.842170 1.971092 -9.286616 6 2 1.100
941 26 -1.249995 -9.218336 -4.046742 6 2 1.100
942 26 4.634539 6.083068 -8.799474 6 2 1.100
943 26 0.494480 0.393777 -5.271415 6 2 1.100
944 26 -4.809706 10.798790 10.302323 6 2 1.100
945 26 2.069571 2.623502 9.209220 6 2 1.100
946 26 -0.886170 8.237558 -2.558709 6 2 1.100
947 26 -15.324565 4.584736 1.870132 6 2 1.100
948 26 -1.096482 9.910035 -1.756340 6 2 1.100
949 26 -15.288033 3.502853 2.988574 6 2 1.100
950 26 -16.548762 3.254235 1.884332 6 2 1.100
951 26 -2.637579 10.351521 -0.914347 6 2 1.100
952 26 -13.800276 4.195598 2.721473 6 2 1.100
953 26 -2.238941 8.739559 -1.977810 6 2 1.100
954 26 -16.561772 5.166171 4.503117 6 2 1.100
955 26 -3.390827 9.165915 -0.753707 6 2 1.100
956 26 -15.161812 7.209665 3.130624 6 2 1.100
957 26 -14.394367 5.467245 5.830196 6 2 1.100
958 26 -14.165477 6.507614 4.374742 6 2 1.100
959 26 -15.549957 6.455093 5.454256 6 2 1.100
960 26 -16.715001 3.464947 3.763417 6 2 1.100
961 26 -15.717497 4.867830 6.186504 6 2 1.100
962 26 -16.323598 5.973263 2.763991 6 2 1.100
963 26 -16.870822 4.656959 2.760509 6 2 1.100
964 26 -14.279905 5.899791 2.628283 6 2 1.100
965 26 -15.578752 4.034418 4.886212 6 2 1.100
966 26 -12.927880 5.280343 3.539354 6 2 1.100
967 26 -13.312727 4.889241 4.965577 6 2 1.100
968 26 -16.208910 6.723487 4.104398 6 2 1.100
969 26 -3.842274 6.276335 -3.730988 6 2 1.100
970 26 -4.692314 8.636684 -1.820297 6 2 1.100
971 26 -4.397868 7.023951 -2.640315 6 2 1.100
972 26 -9.919417 2.965033 -10.890518 6 2 1.100
973 26 -11.474230 2.906243 -11.306312 6 2 1.100
974 26 -8.714669 2.078160 -10.222521 6 2 1.100
975 26 -9.642222 2.857307 -13.023952 6 2 1.100
976 26 -12.005535 1.278235 -10.780880 6 2 1.100
977 26 -9.961250 0.130427 -10.537248 6 2 1.100
978 26 -8.634435 -0.671741 -11.102721 6 2 1.100
979 26 -8.127030 -1.506497 -12.336989 6 2 1.100
980 26 -10.150519 -1.131378 -11.748884 6 2 1.100
981 26 -10.835541 1.993503 -12.234934 6 2 1.100
982 26 -8.179770 2.440885 -13.188570 6 2 1.100
983 26 0.678245 14.525421 4.141226 6 2 1.100
984 26 3.968643 14.711522 5.801948 6 2 1.100
985 26 1.688647 1.173830 5.163229 6 2 1.100
986 26 3.706036 16.195110 4.991135 6 2 1.100
987 26 -2.940994 5.211802 10.039943 6 2 1.100
988 26 4.465189 13.786874 2.403296 6 2 1.100
989 26 2.728074 13.311024 2.940354 6 2 1.100
990 26 1.211793 13.967795 5.627514 6 2 1.100
991 26 2.299802 14.124932 6.835132 6 2 1.100
992 26 3.163600 15.237609 3.036768 6 2 1.100
993 26 5.158335 13.899887 6.626909 6 2 1.100
994 26 5.240543 15.197356 2.595566 6 2 1.100
995 26 4.636710 12.912796 5.527309 6 2 1.100
996 26 1.436784 16.831498 5.180370 6 2 1.100
997 26 2.704519 16.848193 3.766722 6 2 1.100
998 26 4.585514 13.924974 3.992924 6 2 1.100
999 26 5.988280 13.483328 5.161686 6 2 1.100
1000 26 3.084830 14.248399 1.699179 6 2 1.100
1001 26 1.365713 15.114127 2.836897 6 2 1.100
1002 26 0.320949 15.673444 5.242996 6 2 1.100
1003 26 5.953971 14.460435 3.853189 6 2 1.100
1004 26 5.194193 15.231142 5.051838 6 2 1.100
1005 26 2.040109 15.758840 1.748396 6 2 1.100
1006 26 3.708345 12.748285 4.180786 6 2 1.100
1007 26 -8.198113 0.859032 -13.515402 6 2 1.100
1008 26 -7.922660 0.636415 -10.437941 6 2 1.100
1009 26 -8.991986 -0.394872 -12.870034 6 2 1.100
1010 26 -7.549732 1.539903 -11.831710 6 2 1.100
1011 26 -11.551793 -0.332168 -10.696930 6 2 1.100
1012 26 -7.014996 -0.104489 -11.609489 6 2 1.100
1013 26 -9.740540 1.071384 -13.055231 6 2 1.100
1014 26 -10.569727 1.593539 -10.224443 6 2 1.100
1015 26 -6.893518 -0.852930 -12.945132 6 2 1.100
1016 26 -7.624046 1.894347 -7.937858 6 2 1.100
1017 26 -9.935578 4.064540 -12.129266 6 2 1.100
1018 26 -10.906724 0.357310 -12.036115 6 2 1.100
1019 26 -6.787235 0.664257 -13.168744 6 2 1.100
1020 26 -8.576389 3.086374 -11.675514 6 2 1.100
1021 26 0.656085 10.760468 7.604822 6 2 1.100
1022 26 3.239378 11.919816 1.404591 6 2 1.100
1023 26 -2.231126 5.148181 1.403129 6 2 1.100
1024 26 2.450653 7.988236 4.639349 6 2 1.100
1025 26 0.960710 5.010796 7.008079 6 2 1.100
1026 26 -0.517073 4.478316 -0.103943 6 2 1.100
1027 26 -5.259513 -3.425145 8.525060 6 2 1.100
1028 26 3.276970 1.609978 0.499641 6 2 1.100
1029 26 8.952321 0.706374 5.784807 6 2 1.100
1030 26 -3.361104 3.415396 -9.260402 6 2 1.100
1031 26 5.294584 12.251486 -4.505580 6 2 1.100
1032 26 -12.363373 6.840671 -2.640730 6 2 1.100
1033 26 -9.117911 -3.262501 -4.383131 6 2 1.100
1034 26 -9.400248 -1.650283 6.857439 6 2 1.100
1035 26 -9.482076 9.325966 -3.885069 6 2 1.100
1036 26 -0.708392 3.623742 -11.451002 6 2 1.100
1037 26 5.849701 10.759769 -4.562436 6 2 1.100
1038 26 -12.114294 -4.419506 -5.806814 6 2 1.100
1039 26 -12.901407 0.716965 9.525436 6 2 1.100
1040 26 -9.338240 7.732774 -6.676696 6 2 1.100
1041 26 -13.983945 10.830795 -4.300540 6 2 1.100
1042 26 -5.698361 -6.600503 -4.256283 6 2 1.100
1043 26 -11.521511 6.166984 -9.429897 6 2 1.100
1044 26 -14.357683 -3.369418 6.576591 6 2 1.100
1045 26 -11.349736 7.884869 -8.591145 6 2 1.100
1046 26 -8.163316 -4.566880 -3.460717 6 2 1.100
1047 26 -8.992254 6.082688 0.082068 6 2 1.100
1048 26 -13.645565 -3.120184 2.446594 6 2 1.100
1049 26 -15.268598 4.234191 -2.063159 6 2 1.100
1050 26 -1.054653 6.193453 -14.101094 6 2 1.100
1051 26 8.194151 6.833598 -5.415752 6 2 1.100
1052 26 -2.559453 3.386581 -10.813897 6 2 1.100
1053 26 7.953588 10.477380 -2.352099 6 2 1.100
1054 26 -3.694165 7.929963 -9.785527 6 2 1.100
1055 26 9.427314 6.988356 2.341408 6 2 1.100
1056 26 -1.165185 1.901255 -8.128235 6 2 1.100
1057 26 7.342100 5.137050 -1.806018 6 2 1.100
1058 26 -1.966082 4.506800 -11.821814 6 2 1.100
1059 26 3.967718 8.654819 -0.434848 6 2 1.100
1060 26 -1.347942 9.055218 -9.426191 6 2 1.100
1061 26 9.733536 10.826443 -0.963770 6 2 1.100
1062 26 -10.964973 -6.609234 -4.155148 6 2 1.100
1063 26 -12.788591 5.101255 -0.091013 6 2 1.100
1064 26 -15.956626 1.014055 5.654254 6 2 1.100
1065 26 -13.376875 3.200355 -7.171703 6 2 1.100
1066 26 -5.728815 4.170943 -8.613069 6 2 1.100
1067 26 6.393517 3.800620 -4.926204 6 2 1.100
1068 26 -9.576955 -2.017226 -5.389007 6 2 1.100
1069 26 -15.539311 -2.259204 3.663377 6 2 1.100
1070 26 -10.461317 5.049855 -9.153483 6 2 1.100
1071 26 -6.913025 5.440063 -4.964250 6 2 1.100
1072 26 -6.780358 -5.958390 -3.282701 6 2 1.100
1073 26 -13.634235 -0.218784 6.973408 6 2 1.100
1074 26 -13.176063 8.476469 0.086171 6 2 1.100
1075 26 -12.385453 10.789048 -6.852237 6 2 1.100
1076 26 -7.615148 -4.984200 -10.633994 6 2 1.100
1077 26 -10.035379 5.618716 -0.847304 6 2 1.100
1078 26 -13.842195 -4.346038 5.212472 6 2 1.100
1079 26 -7.467236 9.769989 -6.137008 6 2 1.100
1080 26 -3.897990 7.585637 -13.911395 6 2 1.100
1081 26 7.821343 6.569665 -2.381891 6 2 1.100
1082 26 -1.073871 2.413410 -12.672813 6 2 1.100
1083 26 10.145877 5.376410 -4.004410 6 2 1.100
1084 26 -1.986746 7.948843 -10.534846 6 2 1.100
1085 26 7.197971 6.429942 -0.612252 6 2 1.100
1086 26 -1.413675 9.630641 -12.948174 6 2 1.100
1087 26 9.353241 4.402952 0.567881 6 2 1.100
1088 26 0.234680 4.037020 -9.995456 6 2 1.100
1089 26 7.987050 3.537811 -4.428995 6 2 1.100
1090 26 1.909825 10.312321 0.407477 6 2 1.100
1091 26 0.715144 6.421480 -10.293872 6 2 1.100
1092 26 8.017266 3.189728 -2.801930 6 2 1.100
1093 26 -5.923590 -4.301632 -10.683800 6 2 1.100
1094 26 -14.290576 3.227323 -3.176366 6 2 1.100
1095 26 -11.129743 -4.534258 5.986206 6 2 1.100
1096 26 -13.812909 6.156735 -0.563826 6 2 1.100
1097 26 -1.341819 5.763976 -5.965555 6 2 1.100
1098 26 4.058892 7.232823 0.000634 6 2 1.100
1099 26 -7.743033 -3.819528 -5.481635 6 2 1.100
1100 26 -7.757099 3.512624 -4.418835 6 2 1.100
1101 26 -12.785979 -2.267511 9.028984 6 2 1.100
1102 26 -7.134567 5.532260 -2.227515 6 2 1.100
1103 26 -8.524266 -7.695574 -7.729669 6 2 1.100
1104 26 -12.911203 -2.658114 6.274040 6 2 1.100
1105 26 -12.689297 11.575977 -5.356004 6 2 1.100
1106 26 -12.220831 10.242532 -4.747419 6 2 1.100
1107 26 -10.746640 2.069776 -4.993819 6 2 1.100
1108 26 -9.587821 -7.478043 -6.649321 6 2 1.100
1109 26 -11.188603 -0.179953 4.971169 6 2 1.100
1110 26 -12.725151 7.395775 -8.920751 6 2 1.100
1111 26 -4.080672 3.527946 -11.019156 6 2 1.100
1112 26 3.133312 7.070815 -1.341274 6 2 1.100
1113 26 -1.029729 5.640232 -8.971060 6 2 1.100
1114 26 2.694248 7.780935 -4.200861 6 2 1.100
1115 26 1.520795 4.454700 -13.123757 6 2 1.100
1116 26 6.329263 9.194177 -1.862618 6 2 1.100
1117 26 -6.450535 6.982701 -12.540958 6 2 1.100
1118 26 7.395166 11.199645 -6.286077 6 2 1.100
1119 26 -4.459242 3.664306 -7.402017 6 2 1.100
1120 26 3.385089 10.534635 -2.463041 6 2 1.100
1121 26 -2.152313 4.849020 6.780461 6 2 1.100
1122 26 -2.809647 8.835891 5.750827 6 2 1.100
1123 26 -6.048660 1.257445 -4.928818 6 2 1.100
1124 26 -2.736525 2.416731 0.657084 6 2 1.100
1125 26 -3.246611 4.004976 1.801191 6 2 1.100
1126 26 -1.192275 7.606187 -6.222930 6 2 1.100
1127 26 10.201481 9.257830 -1.076578 6 2 1.100
1128 26 -10.828474 -7.186650 -5.663225 6 2 1.100
1129 26 -15.074165 5.884886 -6.594821 6 2 1.100
1130 26 -11.409744 -4.474415 7.556619 6 2 1.100
1131 26 -12.598785 8.184344 -3.258386 6 2 1.100
1132 26 -3.246271 2.450397 -7.831327 6 2 1.100
1133 26 4.687013 6.021576 -5.953161 6 2 1.100
1134 26 -8.748805 -2.018534 -7.438327 6 2 1.100
1135 26 -10.430248 8.405798 -5.177066 6 2 1.100
1136 26 -13.395837 -2.713755 4.653843 6 2 1.100
1137 26 -10.511256 7.915221 -1.162522 6 2 1.100
1138 26 -7.273468 -6.669165 -4.787581 6 2 1.100
1139 26 -13.016539 -3.615366 7.821004 6 2 1.100
1140 26 -10.193763 4.278289 -6.092742 6 2 1.100
1141 26 -8.716016 5.745700 -4.578675 6 2 1.100
1142 26 -14.403708 5.123628 -3.889970 6 2 1.100
1143 26 -5.385606 -5.016124 -9.281729 6 2 1.100
1144 26 -10.911687 -1.760092 5.743769 6 2 1.100
1145 26 -8.560801 4.425988 -5.194973 6 2 1.100
1146 26 2.133240 4.847061 -11.620346 6 2 1.100
1147 26 8.274562 12.336945 -2.163437 6 2 1.100
1148 26 1.398157 6.181803 -12.072252 6 2 1.100
1149 26 7.642406 9.729156 -0.850870 6 2 1.100
1150 26 0.625770 2.429798 -8.189352 6 2 1.100
1151 26 7.705750 4.280101 -5.987865 6 2 1.100
1152 26 0.116624 4.898700 -6.329961 6 2 1.100
1153 26 5.644725 8.694659 -7.547181 6 2 1.100
1154 26 -2.777322 8.356182 -8.455941 6 2 1.100
1155 26 9.599608 8.542380 1.933261 6 2 1.100
1156 26 -6.375431 1.606828 -3.248755 6 2 1.100
1157 26 4.173126 -3.425113 -4.553871 6 2 1.100
1158 26 -8.420279 1.013468 -1.500848 6 2 1.100
1159 26 2.372706 -5.153154 -4.601030 6 2 1.100
1160 26 2.266957 3.015266 -5.187030 6 2 1.100
1161 26 6.554679 2.677892 4.037646 6 2 1.100
1162 26 6.666688 4.341866 4.415477 6 2 1.100
1163 26 9.764254 -0.102671 -2.472758 6 2 1.100
1164 26 10.035759 -1.424336 -1.556451 6 2 1.100
1165 26 10.349607 0.051293 0.317055 6 2 1.100
1166 26 7.510103 -1.188936 -0.718430 6 2 1.100
1167 26 8.950881 -2.219637 -2.418853 6 2 1.100
1168 26 9.636153 -1.909639 0.182413 6 2 1.100
1169 26 8.999726 0.755364 0.029701 6 2 1.100
1170 26 9.412377 -0.834572 1.245089 6 2 1.100
1171 26 10.140355 0.887290 -1.155452 6 2 1.100
1172 26 7.947681 -0.978333 -2.238001 6 2 1.100
1173 26 8.424522 0.540072 -1.715453 6 2 1.100
1174 26 -1.013299 7.006349 7.981471 6 2 1.100
1175 26 8.621069 -2.496360 -0.855309 6 2 1.100
1176 26 7.623331 1.435239 7.792278 6 2 1.100
1177 26 -6.805264 -7.945003 -4.182000 6 2 1.100
1178 26 -8.669458 5.225534 -2.879779 6 2 1.100
1179 26 -13.068080 -1.699747 2.394409 6 2 1.100
1180 26 -8.264338 9.739802 -1.285815 6 2 1.100
1181 26 -0.050945 9.578830 -8.130318 6 2 1.100
1182 26 6.354553 4.590968 -0.448806 6 2 1.100
1183 26 -5.620613 -8.533607 -5.741833 6 2 1.100
1184 26 -11.147681 -2.083363 9.551618 6 2 1.100
1185 26 -11.852781 10.338099 -3.074286 6 2 1.100
1186 26 -8.361610 8.542812 -5.067529 6 2 1.100
1187 26 -6.198651 -7.220969 -5.934281 6 2 1.100
1188 26 -12.196759 -2.917905 3.274163 6 2 1.100
1189 26 -8.958109 6.992267 -5.349000 6 2 1.100
1190 26 -7.723146 4.942302 -6.371023 6 2 1.100
1191 26 -7.724890 -2.528750 -4.732605 6 2 1.100
1192 26 -13.009627 6.623934 -6.019713 6 2 1.100
1193 26 -15.953926 -1.057563 2.666401 6 2 1.100
1194 26 -9.774202 10.017113 -7.469998 6 2 1.100
1195 26 -2.068468 5.162773 -7.645388 6 2 1.100
1196 26 6.870227 9.126241 -4.725553 6 2 1.100
1197 26 -0.016359 2.316810 -11.191961 6 2 1.100
1198 26 8.686707 8.543000 -6.853454 6 2 1.100
1199 26 -5.297269 6.253582 -11.139782 6 2 1.100
1200 26 8.506506 7.249228 1.081581 6 2 1.100
1201 26 -4.249090 6.374918 -9.608800 6 2 1.100
1202 26 8.809196 7.856787 -3.404526 6 2 1.100
1203 26 -0.286594 3.106897 -6.902814 6 2 1.100
1204 26 6.753643 11.105106 -1.357764 6 2 1.100
1205 26 -4.792787 9.276256 -8.683916 6 2 1.100
1206 26 10.528071 5.980732 -0.628226 6 2 1.100
1207 26 1.195659 8.311627 -12.739869 6 2 1.100
1208 26 7.480968 7.932161 -1.008544 6 2 1.100
1209 26 -6.290658 -5.327309 -5.843251 6 2 1.100
1210 26 -11.850926 5.566084 -5.556265 6 2 1.100
1211 26 -15.707184 -0.469485 6.296119 6 2 1.100
1212 26 -11.556025 9.773420 -7.767210 6 2 1.100
1213 26 -1.511482 4.170273 -9.704282 6 2 1.100
1214 26 5.101957 9.025464 -5.041966 6 2 1.100
1215 26 -7.720763 -2.354514 -9.238461 6 2 1.100
1216 26 -12.777577 2.748004 -3.010733 6 2 1.100
1217 26 -15.229956 0.922835 7.242186 6 2 1.100
1218 26 -11.619365 9.029479 -1.890410 6 2 1.100
1219 26 -7.224485 -2.009316 -7.829398 6 2 1.100
1220 26 -14.162797 5.867167 -7.843247 6 2 1.100
1221 26 -13.846094 2.093004 4.333480 6 2 1.100
1222 26 -7.797368 6.462541 -1.040090 6 2 1.100
1223 26 -7.265297 -8.348161 -6.801533 6 2 1.100
1224 26 -11.115850 12.306946 -4.015922 6 2 1.100
1225 26 -11.691309 -3.440130 8.814268 6 2 1.100
1226 26 -8.415885 10.320999 -2.729369 6 2 1.100
1227 26 -2.915448 6.300033 -14.409016 6 2 1.100
1228 26 5.607031 7.202429 -6.870274 6 2 1.100
1229 26 -3.359934 10.583924 -10.997576 6 2 1.100
1230 26 9.150871 7.280228 -1.762390 6 2 1.100
1231 26 0.327464 8.371973 -9.724632 6 2 1.100
1232 26 8.074251 9.301102 -3.524106 6 2 1.100
1233 26 -6.607525 7.384335 -10.894417 6 2 1.100
1234 26 4.179033 7.988151 -3.780956 6 2 1.100
1235 26 -0.803970 5.311683 -10.786892 6 2 1.100
1236 26 8.833706 6.301621 -3.620651 6 2 1.100
1237 26 -2.426545 -1.760556 -8.185481 6 2 1.100
1238 26 -10.340970 -0.522077 -8.635081 6 2 1.100
1239 26 7.546220 0.331573 2.499369 6 2 1.100
1240 26 6.151104 -5.430562 1.344930 6 2 1.100
1241 26 -9.648817 0.129667 -5.909329 6 2 1.100
1242 26 3.565123 -4.499307 -5.566331 6 2 1.100
1243 26 -2.321915 -6.499240 -8.967519 6 2 1.100
1244 26 0.093101 10.020838 -5.428401 6 2 1.100
1245 26 -1.572922 -8.464668 -5.465259 6 2 1.100
1246 26 5.899769 2.716627 -7.869501 6 2 1.100
1247 26 1.903278 -4.900576 -7.004941 6 2 1.100
1248 26 -1.858080 -6.948546 -7.452901 6 2 1.100
1249 26 2.552941 5.760933 8.326007 6 2 1.100
1250 26 -1.431400 8.652584 5.931065 6 2 1.100
1251 26 3.842797 9.265154 6.385826 6 2 1.100
1252 26 4.486929 -1.259387 1.426587 6 2 1.100
1253 26 8.635293 3.862194 7.763623 6 2 1.100
1254 26 8.163092 2.768408 8.551348 6 2 1.100
1255 26 6.962634 -0.412881 0.858781 6 2 1.100
1256 26 9.404041 3.516832 6.517180 6 2 1.100
1257 26 -1.725840 6.981558 5.118723 6 2 1.100
1258 26 -8.406781 -7.941871 -3.566116 6 2 1.100
1259 26 -9.194236 5.885736 -8.750466 6 2 1.100
1260 26 -12.204824 2.716251 7.181274 6 2 1.100
1261 26 -11.825563 6.642686 -0.865791 6 2 1.100
1262 26 1.852528 9.110756 -10.121526 6 2 1.100
1263 26 10.466321 8.154142 -2.541736 6 2 1.100
1264 26 -9.344244 -5.021081 -4.833876 6 2 1.100
1265 26 -9.224559 -0.457973 5.716362 6 2 1.100
1266 26 -9.109363 4.713529 -7.747420 6 2 1.100
1267 26 -12.049505 2.394480 -6.179648 6 2 1.100
1268 26 -8.967600 8.304021 -2.167523 6 2 1.100
1269 26 -6.996976 -5.861737 -8.614640 6 2 1.100
1270 26 -9.805675 -3.169860 6.806135 6 2 1.100
1271 26 -12.511815 2.299482 -4.449443 6 2 1.100
1272 26 -9.476279 -2.425827 -8.845519 6 2 1.100
1273 26 -14.973588 -2.381999 2.121425 6 2 1.100
1274 26 -13.306082 9.472553 -3.903688 6 2 1.100
1275 26 -12.634324 11.999594 -3.809253 6 2 1.100
1276 26 0.980348 2.439169 -9.854385 6 2 1.100
1277 26 4.326818 11.898020 -1.579841 6 2 1.100
1278 26 -2.776957 9.017741 -11.550168 6 2 1.100
1279 26 4.065564 5.556538 -2.450713 6 2 1.100
1280 26 -0.541860 6.338815 -7.634325 6 2 1.100
1281 26 8.424599 11.511893 0.799650 6 2 1.100
1282 26 -1.226889 10.337403 -10.366656 6 2 1.100
1283 26 5.294454 10.812833 -2.348418 6 2 1.100
1284 26 -6.510333 4.602850 -10.107825 6 2 1.100
1285 26 7.343862 7.537164 -7.553449 6 2 1.100
1286 26 -1.862976 7.742069 -13.935294 6 2 1.100
1287 26 5.743959 12.509362 -1.250974 6 2 1.100
1288 26 0.041853 8.661228 9.084071 6 2 1.100
1289 26 0.157080 9.258349 6.344405 6 2 1.100
1290 26 -6.363723 -7.907363 8.757531 6 2 1.100
1291 26 1.024185 5.889155 4.230473 6 2 1.100
1292 26 0.659944 5.050025 0.041462 6 2 1.100
1293 26 0.144218 7.221967 1.837738 6 2 1.100
1294 26 -2.542224 5.503404 5.094760 6 2 1.100
1295 26 3.894478 6.668861 7.447926 6 2 1.100
1296 26 -1.117474 4.106144 5.265206 6 2 1.100
1297 26 8.867554 0.471559 2.803511 6 2 1.100
1298 26 -0.015566 8.511507 7.597914 6 2 1.100
1299 26 -2.587802 2.118717 -1.519237 6 2 1.100
1300 26 -3.701692 5.266879 -1.209389 6 2 1.100
1301 26 -3.267363 6.170075 0.852458 6 2 1.100
1302 26 -1.268657 2.727972 -0.253351 6 2 1.100
1303 26 -1.143785 -1.437375 -14.121346 6 2 1.100
1304 26 -0.217867 0.087914 -12.425368 6 2 1.100
1305 26 -2.281834 -2.306067 -13.673613 6 2 1.100
1306 26 -1.546405 -0.986902 -11.299022 6 2 1.100
1307 26 -3.807848 -2.077460 -12.902707 6 2 1.100
1308 26 2.766533 -1.260981 -12.518247 6 2 1.100
1309 26 -3.167652 -0.760302 -13.790457 6 2 1.100
1310 26 0.757421 -1.696351 -13.577566 6 2 1.100
1311 26 0.009081 -0.280046 -14.172109 6 2 1.100
1312 26 1.785353 -2.444594 -12.743990 6 2 1.100
1313 26 1.840231 -0.559398 -13.660426 6 2 1.100
1314 26 1.834608 -2.819878 -11.373691 6 2 1.100
1315 26 0.679089 -3.597385 -12.290190 6 2 1.100
1316 26 -1.362071 -3.761367 -12.665696 6 2 1.100
1317 26 -1.504624 0.194892 -14.255459 6 2 1.100
1318 26 -2.604319 -2.918939 -12.356029 6 2 1.100
1319 26 5.503737 2.614584 0.981478 6 2 1.100
1320 26 2.257601 8.475153 2.934736 6 2 1.100
1321 26 0.129008 8.572678 2.494746 6 2 1.100
1322 26 2.178584 9.859494 3.817885 6 2 1.100
1323 26 -4.159388 -1.039245 -2.580435 6 2 1.100
1324 26 4.373894 0.007082 2.984026 6 2 1.100
1325 26 -5.086662 -4.813582 -7.596325 6 2 1.100
1326 26 -11.616542 11.891928 -2.490283 6 2 1.100
1327 26 -11.209094 0.740521 3.452186 6 2 1.100
1328 26 -0.373099 -2.837383 -13.447051 6 2 1.100
1329 26 -13.537503 8.207088 -5.630130 6 2 1.100
1330 26 -2.592832 2.889340 -12.360982 6 2 1.100
1331 26 4.435920 8.887451 -2.223243 6 2 1.100
1332 26 -6.696785 -4.842951 -7.532718 6 2 1.100
1333 26 -8.690167 3.676495 -6.719288 6 2 1.100
1334 26 -9.759707 0.534762 4.360300 6 2 1.100
1335 26 1.824436 0.263352 -12.453014 6 2 1.100
1336 26 -13.715974 5.078275 -5.500966 6 2 1.100
1337 26 -8.801591 -3.201311 -10.151029 6 2 1.100
1338 26 -9.958759 6.020377 -3.349157 6 2 1.100
1339 26 -13.180509 -4.302795 3.743616 6 2 1.100
1340 26 -2.979228 -1.243884 -11.910277 6 2 1.100
1341 26 -7.345375 9.884543 -4.041950 6 2 1.100
1342 26 -5.778102 -3.586672 -8.598082 6 2 1.100
1343 26 -13.964649 7.889753 -4.076827 6 2 1.100
1344 26 -9.948424 -1.185359 4.267868 6 2 1.100
1345 26 0.169905 -1.184398 -10.804488 6 2 1.100
1346 26 -13.339383 4.512968 -2.984547 6 2 1.100
1347 26 -5.299478 7.787209 -13.213511 6 2 1.100
1348 26 9.737182 7.789020 -5.524889 6 2 1.100
1349 26 -0.480818 1.633286 -9.679961 6 2 1.100
1350 26 6.898369 8.088611 -6.089180 6 2 1.100
1351 26 -2.871880 6.579102 -8.820277 6 2 1.100
1352 26 8.759946 5.379934 -6.629417 6 2 1.100
1353 26 -4.623510 -6.016097 -6.505341 6 2 1.100
1354 26 -12.175594 1.142213 5.080852 6 2 1.100
1355 26 -9.222949 2.835744 -5.428742 6 2 1.100
1356 26 -6.485524 8.247224 -3.654859 6 2 1.100
1357 26 -4.769190 2.935333 -8.902761 6 2 1.100
1358 26 6.722980 10.372550 0.466705 6 2 1.100
1359 26 -10.536515 2.864298 -6.668188 6 2 1.100
1360 26 -6.890976 -3.505323 -6.780177 6 2 1.100
1361 26 -16.269420 -0.260791 4.386266 6 2 1.100
1362 26 -13.080028 5.020889 -6.977417 6 2 1.100
1363 26 -9.205435 -4.751665 -10.291557 6 2 1.100
1364 26 -11.392420 8.374577 0.138433 6 2 1.100
1365 26 -10.110244 0.943827 6.025934 6 2 1.100
1366 26 -8.441594 9.108659 -7.444063 6 2 1.100
1367 26 -11.507480 -2.964961 -6.686965 6 2 1.100
1368 26 -12.129226 7.816637 -4.881924 6 2 1.100
1369 26 -11.192915 -1.676510 7.737359 6 2 1.100
1370 26 -11.094597 5.407861 0.262103 6 2 1.100
1371 26 -4.354124 9.499372 -12.444590 6 2 1.100
1372 26 8.138676 5.326894 -0.126144 6 2 1.100
1373 26 0.536201 7.061351 -8.852588 6 2 1.100
1374 26 8.859046 10.103934 0.076092 6 2 1.100
1375 26 0.604527 4.965084 -11.305004 6 2 1.100
1376 26 7.070658 7.514703 0.697297 6 2 1.100
1377 26 1.475966 5.517378 -7.522994 6 2 1.100
1378 26 8.997642 5.456371 -1.667905 6 2 1.100
1379 26 -3.290040 1.506631 -11.468537 6 2 1.100
1380 26 6.624070 11.563085 -3.049681 6 2 1.100
1381 26 2.548270 7.782275 -9.741052 6 2 1.100
1382 26 7.281502 9.089692 -7.754971 6 2 1.100
1383 26 -2.093870 9.706321 4.294253 6 2 1.100
1384 26 -0.740582 8.397728 4.591734 6 2 1.100
1385 26 -3.824664 2.516943 -0.579212 6 2 1.100
1386 26 -6.765902 8.935060 9.594972 6 2 1.100
1387 26 -10.328638 -5.348213 -9.076713 6 2 1.100
1388 26 -15.294565 8.731437 -2.323811 6 2 1.100
1389 26 -12.361968 -0.065304 8.043403 6 2 1.100
1390 26 -0.558670 -2.621268 -11.706622 6 2 1.100
1391 26 -9.610997 4.061744 -3.868091 6 2 1.100
1392 26 -3.788629 7.984292 -12.299429 6 2 1.100
1393 26 5.387041 7.538528 -5.088485 6 2 1.100
1394 26 -6.661136 -4.457831 -4.250274 6 2 1.100
1395 26 -13.868147 7.367701 -7.720809 6 2 1.100
1396 26 -14.736130 2.499614 7.363224 6 2 1.100
1397 26 2.089348 -1.387245 -11.084782 6 2 1.100
1398 26 -9.286422 9.411143 -5.922859 6 2 1.100
1399 26 -10.952742 6.123637 -2.044139 6 2 1.100
1400 26 -4.559089 -7.709633 -6.998081 6 2 1.100
1401 26 -10.668533 1.304074 7.619512 6 2 1.100
1402 26 -1.931904 -0.458550 -12.861683 6 2 1.100
1403 26 -8.965875 11.169560 -6.508925 6 2 1.100
1404 26 -11.390141 -2.684904 -8.481098 6 2 1.100
1405 26 -7.007271 7.189698 -4.906109 6 2 1.100
1406 26 -14.379785 -0.705813 2.403454 6 2 1.100
1407 26 0.940596 0.790831 -13.770743 6 2 1.100
1408 26 -9.656886 10.772426 -1.542468 6 2 1.100
1409 26 -1.108048 8.086641 -8.175319 6 2 1.100
1410 26 8.415577 3.652062 -0.748194 6 2 1.100
1411 26 -2.639481 6.735205 -5.909733 6 2 1.100
1412 26 9.362598 3.607111 -2.045736 6 2 1.100
1413 26 -0.086486 6.727424 -12.550928 6 2 1.100
1414 26 10.294717 4.922254 -2.473576 6 2 1.100
1415 26 -10.027523 -3.609853 -7.799236 6 2 1.100
1416 26 -13.876769 6.030129 -2.290239 6 2 1.100
1417 26 -14.658269 -3.759210 3.460848 6 2 1.100
1418 26 -12.043895 4.460819 -8.946889 6 2 1.100
1419 26 -7.047308 5.811522 -11.551208 6 2 1.100
1420 26 4.192002 7.957269 -6.279048 6 2 1.100
1421 26 -10.448142 -6.621688 -7.681666 6 2 1.100
1422 26 -10.707776 6.900389 0.435618 6 2 1.100
1423 26 -11.087423 -0.441717 6.687320 6 2 1.100
1424 26 -10.934400 6.904111 -5.898606 6 2 1.100
1425 26 -8.083805 -1.650235 -6.015004 6 2 1.100
1426 26 -13.042706 11.063839 -1.254361 6 2 1.100
1427 26 -11.439686 -3.011471 6.886267 6 2 1.100
1428 26 -11.887601 5.404361 -3.513664 6 2 1.100
1429 26 -8.588758 -6.018869 -7.700552 6 2 1.100
1430 26 -10.707371 9.802867 -0.393590 6 2 1.100
1431 26 -13.721032 1.125769 5.615080 6 2 1.100
1432 26 -9.881209 5.737779 -6.135288 6 2 1.100
1433 26 -1.775041 1.746692 -11.208786 6 2 1.100
1434 26 3.557023 5.400258 -4.405989 6 2 1.100
1435 26 -1.458417 10.635300 -8.621036 6 2 1.100
1436 26 5.186174 11.433385 -0.043412 6 2 1.100
1437 26 -1.023129 9.095612 -11.416990 6 2 1.100
1438 26 4.989714 6.234831 -4.071104 6 2 1.100
1439 26 -1.707383 7.709099 -12.323121 6 2 1.100
1440 26 5.664254 6.923812 -0.025858 6 2 1.100
1441 26 1.083861 3.249902 -11.965461 6 2 1.100
1442 26 9.316916 11.248086 -2.592848 6 2 1.100
1443 26 -4.739416 4.731315 -9.913182 6 2 1.100
1444 26 7.407802 12.724351 -0.841777 6 2 1.100
1445 26 -0.497538 3.302579 -8.795544 6 2 1.100
1446 26 3.582609 6.862864 -5.159386 6 2 1.100
1447 26 -10.139171 11.376531 -2.943176 6 2 1.100
1448 26 -5.183576 -5.250130 -4.233205 6 2 1.100
1449 26 -10.965237 -0.003543 8.742532 6 2 1.100
1450 26 -12.272438 9.133636 -5.892463 6 2 1.100
1451 26 -2.252984 11.292717 -9.986337 6 2 1.100
1452 26 10.507157 6.482993 -2.360060 6 2 1.100
1453 26 -8.859817 -4.539912 -8.762013 6 2 1.100
1454 26 -13.400947 3.138043 -5.546638 6 2 1.100
1455 26 -9.629209 -0.041810 7.407820 6 2 1.100
1456 26 -11.588355 4.309972 -0.994907 6 2 1.100
1457 26 -7.372149 -3.465579 -10.841169 6 2 1.100
1458 26 -7.999609 8.111589 -0.819429 6 2 1.100
1459 26 -12.025749 0.884163 6.594811 6 2 1.100
1460 26 -9.244221 6.751542 -1.795708 6 2 1.100
1461 26 -10.514920 -4.371010 -5.990718 6 2 1.100
1462 26 -13.877966 9.828462 -0.843436 6 2 1.100
1463 26 -10.171172 -3.041270 8.360046 6 2 1.100
1464 26 -15.396031 6.356360 -1.477801 6 2 1.100
1465 26 -3.498857 4.713957 -12.340847 6 2 1.100
1466 26 9.310259 10.346821 -3.935763 6 2 1.100
1467 26 2.341015 7.128569 -12.694571 6 2 1.100
1468 26 6.756578 12.925614 -4.163575 6 2 1.100
1469 26 -4.793177 2.063647 -11.435723 6 2 1.100
1470 26 5.370755 7.888399 -1.297973 6 2 1.100
1471 26 -4.360849 7.954727 -8.157824 6 2 1.100
1472 26 7.216208 7.362518 -4.204510 6 2 1.100
1473 26 -0.947782 10.916858 -11.623913 6 2 1.100
1474 26 9.534188 3.816240 -3.686281 6 2 1.100
1475 26 -6.260504 -2.886899 -9.811143 6 2 1.100
1476 26 -10.667804 7.735088 -2.723475 6 2 1.100
1477 26 -15.460925 1.361554 4.171981 6 2 1.100
1478 26 -14.566226 10.291817 -2.401595 6 2 1.100
1479 26 -3.774676 1.953944 -12.990942 6 2 1.100
1480 26 6.211741 9.616633 -6.094271 6 2 1.100
1481 26 -4.738836 -6.445070 -8.261294 6 2 1.100
1482 26 -11.016197 2.234504 -3.410085 6 2 1.100
1483 26 -13.468091 1.397738 7.229123 6 2 1.100
1484 26 -8.608103 7.412029 -8.181579 6 2 1.100
1485 26 -9.953871 -4.530292 -3.604206 6 2 1.100
1486 26 -11.412353 10.726249 -1.470746 6 2 1.100
1487 26 -9.944799 -1.383042 8.523615 6 2 1.100
1488 26 -14.477841 6.605838 -5.281267 6 2 1.100
1489 26 -5.128304 -3.607949 -6.484165 6 2 1.100
1490 26 -7.109988 7.463115 -2.138187 6 2 1.100
1491 26 -10.239961 -0.508179 3.045336 6 2 1.100
1492 26 -13.234837 9.345757 -2.195320 6 2 1.100
1493 26 -5.599053 3.128618 -10.292648 6 2 1.100
1494 26 8.653550 8.935344 -1.945906 6 2 1.100
1495 26 1.366655 7.153687 -7.535793 6 2 1.100
1496 26 4.553614 9.526433 -6.689216 6 2 1.100
1497 26 -3.819000 1.980074 -10.052975 6 2 1.100
1498 26 7.504641 10.379553 1.871177 6 2 1.100
1499 26 -0.041077 4.690721 -14.185952 6 2 1.100
1500 26 8.842916 6.970887 -6.973498 6 2 1.100
1501 26 -1.691376 2.504626 -9.872634 6 2 1.100
1502 26 10.310777 7.087361 -3.988988 6 2 1.100
1503 26 0.208165 6.494431 -6.309787 6 2 1.100
1504 26 5.441336 9.978865 -0.914393 6 2 1.100
1505 26 5.019124 15.674762 -1.567421 6 2 1.100
1506 26 1.306388 5.475598 -2.730782 6 2 1.100
1507 26 -4.074068 -10.450581 0.039082 6 2 1.100
1508 26 0.161005 10.018637 -9.619409 6 2 1.100
1509 26 10.594838 7.665016 -0.850537 6 2 1.100
1510 26 -12.226204 -4.065439 -7.427318 6 2 1.100
1511 26 -14.353400 -1.773785 6.135069 6 2 1.100
1512 26 -15.925459 7.374714 -2.733244 6 2 1.100
1513 26 -8.243386 10.668318 -5.149586 6 2 1.100
1514 26 -4.562855 6.218786 -13.062583 6 2 1.100
1515 26 5.574222 5.454484 0.442855 6 2 1.100
1516 26 -9.919099 -5.932532 -5.906971 6 2 1.100
1517 26 -12.470290 1.886287 3.600369 6 2 1.100
1518 26 -14.107754 7.750982 -2.297839 6 2 1.100
1519 26 -7.501459 6.535664 -6.219762 6 2 1.100
1520 26 -16.011972 5.615991 -2.782038 6 2 1.100
1521 26 -8.163481 -3.502957 -7.803818 6 2 1.100
1522 26 -14.976063 -3.109359 5.026578 6 2 1.100
1523 26 -7.001683 4.683801 -3.646361 6 2 1.100
1524 26 -12.719659 4.222650 -4.532600 6 2 1.100
1525 26 -9.849777 -7.821112 -4.091844 6 2 1.100
1526 26 -14.924987 -0.915344 7.633127 6 2 1.100
1527 26 -7.557559 8.046548 -6.594324 6 2 1.100
1528 26 0.387213 9.701864 -12.453950 6 2 1.100
1529 26 5.843386 6.213700 -1.583489 6 2 1.100
1530 26 -0.469988 8.440588 -13.237257 6 2 1.100
1531 26 10.003687 9.749394 -2.576528 6 2 1.100
1532 26 -1.257169 3.643617 -13.524951 6 2 1.100
1533 26 8.932271 8.311746 -0.255251 6 2 1.100
1534 26 1.141556 4.000728 -7.344072 6 2 1.100
1535 26 8.593001 5.478411 1.667358 6 2 1.100
1536 26 -1.017629 7.242001 -9.491244 6 2 1.100
1537 26 8.302979 8.438003 -5.031673 6 2 1.100
1538 26 -4.164840 2.973934 7.860683 6 2 1.100
1539 26 -0.161417 11.297698 6.217337 6 2 1.100
1540 26 -7.871191 1.844968 0.162465 6 2 1.100
1541 26 3.620917 1.114525 -0.981319 6 2 1.100
1542 26 -2.712343 2.228640 7.566139 6 2 1.100
1543 26 0.401442 2.371149 12.032955 6 2 1.100
1544 26 -7.140878 -6.113307 10.267931 6 2 1.100
1545 26 2.654849 7.421082 8.595757 6 2 1.100
1546 26 1.354154 9.633768 8.386816 6 2 1.100
1547 26 2.086437 5.081466 -9.656044 6 2 1.100
1548 26 8.220212 8.801737 2.579681 6 2 1.100
1549 26 -6.565430 -1.954236 -6.044509 6 2 1.100
1550 26 -15.870114 0.552559 2.813111 6 2 1.100
1551 26 -10.840298 11.460655 -7.039236 6 2 1.100
1552 26 -13.299016 3.715189 -1.612030 6 2 1.100
1553 26 -4.102525 3.543079 -13.004159 6 2 1.100
1554 26 7.960172 9.840114 -6.365105 6 2 1.100
1555 26 -10.108777 9.473475 -2.342675 6 2 1.100
1556 26 -7.878988 -6.291458 -9.765004 6 2 1.100
1557 26 -12.092714 1.580061 8.406553 6 2 1.100
1558 26 -15.934749 6.296783 -4.577545 6 2 1.100
1559 26 -6.133900 -6.403021 -7.294213 6 2 1.100
1560 26 -10.297549 3.731970 -8.028240 6 2 1.100
1561 26 -14.379496 -0.261054 5.432375 6 2 1.100
1562 26 -11.297313 3.124190 -1.947353 6 2 1.100
1563 26 -11.224496 -4.993402 -4.353394 6 2 1.100
1564 26 -9.567953 7.584988 -3.968959 6 2 1.100
1565 26 -13.673016 2.217772 8.603910 6 2 1.100
1566 26 -15.554432 4.885484 -5.298472 6 2 1.100
1567 26 2.441181 6.336121 -10.715170 6 2 1.100
1568 26 6.827641 8.123866 2.371311 6 2 1.100
1569 26 -2.506822 2.958051 -13.985094 6 2 1.100
1570 26 9.792541 6.141603 -5.467302 6 2 1.100
1571 26 -3.149617 3.602037 -6.463591 6 2 1.100
1572 26 10.165836 9.241551 0.542661 6 2 1.100
1573 26 -3.407961 6.130578 -7.218905 6 2 1.100
1574 26 5.533569 11.189108 -6.322661 6 2 1.100
1575 26 -3.976867 7.656825 -6.556307 6 2 1.100
1576 26 10.319926 7.473573 0.785880 6 2 1.100
1577 26 3.564727 9.339509 4.579757 6 2 1.100
1578 26 -0.566019 6.875354 4.005861 6 2 1.100
1579 26 0.309372 8.230461 -11.280484 6 2 1.100
1580 26 6.195343 9.388342 1.755926 6 2 1.100
1581 26 -9.786131 -6.245648 -3.281187 6 2 1.100
1582 26 -10.721572 10.362700 -4.357264 6 2 1.100
1583 26 -12.799257 -4.595935 6.534835 6 2 1.100
1584 26 -14.589731 3.617480 -4.810847 6 2 1.100
1585 26 0.126257 8.175906 -7.291427 6 2 1.100
1586 26 8.249834 5.334232 -4.794455 6 2 1.100
1587 26 -8.920045 -8.259129 -5.509583 6 2 1.100
1588 26 -13.887614 8.945913 -7.094818 6 2 1.100
1589 26 -11.009766 2.339308 6.227263 6 2 1.100
1590 26 -11.289854 12.187537 -5.650093 6 2 1.100
1591 26 -5.991174 -3.327683 -5.258249 6 2 1.100
1592 26 -8.443370 4.891190 -1.194680 6 2 1.100
1593 26 -12.072987 -1.436665 4.187631 6 2 1.100
1594 26 -12.351672 7.781935 -6.974778 6 2 1.100
1595 26 -7.516008 -8.682667 -5.237578 6 2 1.100
1596 26 -9.105274 -2.003582 5.160322 6 2 1.100
1597 26 -14.689968 9.260088 -5.357819 6 2 1.100
1598 26 -11.945802 4.103586 -6.273004 6 2 1.100
1599 26 1.122687 5.889634 -13.619907 6 2 1.100
1600 26 5.715906 8.323863 -3.522592 6 2 1.100
1601 26 -2.136391 3.660938 -8.129258 6 2 1.100
1602 26 7.874782 8.972828 0.912315 6 2 1.100
1603 26 -4.548206 5.109167 -6.734823 6 2 1.100
1604 26 5.250010 12.820756 -2.911540 6 2 1.100
1605 26 -2.614309 8.526273 -6.520804 6 2 1.100
1606 26 6.254426 8.739628 -0.059226 6 2 1.100
1607 26 -5.367547 5.628324 -8.537270 6 2 1.100
1608 26 6.159647 5.057263 -3.153409 6 2 1.100
1609 26 4.432435 -3.731270 3.313028 6 2 1.100
1610 26 3.168201 0.212141 12.419961 6 2 1.100
1611 26 6.265399 -6.505383 -0.094344 6 2 1.100
1612 26 -1.627452 -2.564931 1.954648 6 2 1.100
1613 26 5.630332 -0.379202 4.943626 6 2 1.100
1614 26 -3.448427 -10.489790 2.334768 6 2 1.100
1615 26 1.036079 8.331273 13.262701 6 2 1.100
1616 26 -8.120354 0.496640 -3.620644 6 2 1.100
1617 26 2.314398 11.909346 0.356996 6 2 1.100
1618 26 1.538443 14.188654 -3.677556 6 2 1.100
1619 26 7.602327 12.886210 3.243949 6 2 1.100
1620 26 7.655726 6.567883 5.820953 6 2 1.100
1621 26 -6.466277 12.704728 -0.858722 6 2 1.100
1622 26 -7.045752 15.272240 1.620052 6 2 1.100
1623 26 -0.153907 8.284194 -1.240874 6 2 1.100
1624 26 -3.081834 7.973327 -3.911061 6 2 1.100
1625 26 -0.197950 0.793701 -2.518863 6 2 1.100
1626 26 -11.348812 9.724508 -10.423926 6 2 1.100
1627 26 -0.332115 14.541259 -0.744043 6 2 1.100
1628 26 6.087138 6.005631 9.873494 6 2 1.100
1629 26 0.157994 -9.231175 -0.276438 6 2 1.100
1630 26 -4.530054 4.123154 -0.900030 6 2 1.100
1631 26 -7.862666 1.835291 5.679247 6 2 1.100
1632 26 -10.047692 -2.551470 -2.246829 6 2 1.100
1633 26 -3.223988 -1.019888 -1.342173 6 2 1.100
1634 26 3.085028 -4.110154 4.608163 6 2 1.100
1635 26 -11.566850 -6.900982 0.460791 6 2 1.100
1636 26 -5.380672 4.305787 14.355833 6 2 1.100
1637 26 -0.600078 -1.360759 -3.838675 6 2 1.100
1638 26 -1.751865 -5.784555 -5.554762 6 2 1.100
1639 26 -7.498902 10.303741 3.782008 6 2 1.100
1640 26 1.375388 9.715374 -5.960479 6 2 1.100
1641 26 1.321972 2.182621 -4.280574 6 2 1.100
1642 26 4.789130 1.344582 0.655401 6 2 1.100
1643 26 5.792456 11.309727 6.195426 6 2 1.100
1644 26 -0.840948 15.534387 8.623729 6 2 1.100
1645 26 -5.736216 -0.498605 6.048119 6 2 1.100
1646 26 -4.673529 1.412328 10.648293 6 2 1.100
1647 26 -3.748210 10.550947 11.550659 6 2 1.100
1648 26 -7.185573 -8.344451 7.358890 6 2 1.100
1649 26 1.745979 14.428448 0.089757 6 2 1.100
1650 26 -11.446957 3.081479 9.619007 6 2 1.100
1651 26 -3.572590 3.603166 10.357943 6 2 1.100
1652 26 -1.644291 -6.848650 -0.435274 6 2 1.100
1653 26 -4.149463 -8.426286 0.259148 6 2 1.100
1654 26 0.356710 -6.241633 3.506882 6 2 1.100
1655 26 -4.729813 -6.992315 9.922900 6 2 1.100
1656 26 -6.116011 -2.435886 3.729586 6 2 1.100
1657 26 5.638628 -0.170362 -8.318055 6 2 1.100
1658 26 0.380959 3.516565 1.129328 6 2 1.100
1659 26 -3.408134 6.453033 -0.527455 6 2 1.100
1660 26 -6.541780 -4.610577 9.572732 6 2 1.100
1661 26 -0.165878 -9.824425 3.141830 6 2 1.100
1662 26 5.031633 5.966298 6.595529 6 2 1.100
1663 26 -2.554356 10.511932 -12.211067 6 2 1.100
1664 26 10.080671 5.847913 1.054209 6 2 1.100
1665 26 -2.976903 4.921469 -9.648993 6 2 1.100
1666 26 4.690643 4.406497 -3.478881 6 2 1.100
1667 26 1.674409 3.755865 -8.755391 6 2 1.100
1668 26 7.410384 10.729515 -4.428460 6 2 1.100
1669 26 -1.756776 4.679508 -14.533017 6 2 1.100
1670 26 6.814889 5.435112 -4.381696 6 2 1.100
1671 26 -0.442425 4.583010 -7.825031 6 2 1.100
1672 26 7.025807 5.607646 1.347135 6 2 1.100
1673 26 -3.040886 6.598918 -12.878981 6 2 1.100
1674 26 6.588231 12.216910 -5.544565 6 2 1.100
1675 26 -2.978895 6.917440 -11.277308 6 2 1.100
1676 26 7.511319 4.152493 0.651885 6 2 1.100
1677 26 -2.552359 1.571086 -9.121043 6 2 1.100
1678 26 6.162948 5.059563 -6.082989 6 2 1.100
1679 26 -3.510492 5.530433 -11.074866 6 2 1.100
1680 26 8.186936 4.838355 -3.151747 6 2 1.100
1681 26 -1.516243 4.909692 13.297365 6 2 1.100
1682 26 5.385247 2.011365 2.868977 6 2 1.100
1683 26 -1.257527 5.240718 -1.566389 6 2 1.100
1684 26 -8.616433 -2.808679 1.814906 6 2 1.100
1685 26 -5.062707 0.120746 0.237420 6 2 1.100
1686 26 -1.846228 2.598618 -6.851948 6 2 1.100
1687 26 3.436192 9.084225 -5.108400 6 2 1.100
1688 26 -4.675867 -4.783910 -5.517873 6 2 1.100
1689 26 -11.171413 3.545059 -4.800494 6 2 1.100
1690 26 -12.466130 -0.156413 2.915495 6 2 1.100
1691 26 -11.242204 8.904953 -3.787913 6 2 1.100
1692 26 -0.583140 6.943733 -11.149810 6 2 1.100
1693 26 3.104205 6.477939 -3.257586 6 2 1.100
1694 26 -6.173090 -5.897027 -10.277985 6 2 1.100
1695 26 -9.778720 12.078633 -4.872040 6 2 1.100
1696 26 -12.423606 -5.157681 5.085025 6 2 1.100
1697 26 -8.684428 6.142200 -7.156861 6 2 1.100
1698 26 -8.854364 -6.762259 -5.034678 6 2 1.100
1699 26 -12.661417 -1.543657 7.400237 6 2 1.100
1700 26 -10.506815 6.457699 -7.615166 6 2 1.100
1701 26 -15.551289 7.950322 -4.527489 6 2 1.100
1702 26 -10.397939 -3.464236 -9.756458 6 2 1.100
1703 26 -14.674981 4.193270 -6.714209 6 2 1.100
1704 26 -11.885745 -2.924734 5.153491 6 2 1.100
1705 26 -8.164163 3.818236 -2.616596 6 2 1.100
1706 26 -6.363282 6.125841 -9.864804 6 2 1.100
1707 26 9.384503 4.340208 -5.307159 6 2 1.100
1708 26 -3.728648 4.851815 -8.256781 6 2 1.100
1709 26 8.598875 11.194427 -5.123038 6 2 1.100
1710 26 -4.850394 6.657760 -7.533204 6 2 1.100
1711 26 2.585592 7.875150 -2.552295 6 2 1.100
1712 26 -4.520618 9.385517 -10.682618 6 2 1.100
1713 26 6.427409 9.884370 -3.231752 6 2 1.100
1714 26 -4.919671 4.875777 -11.670515 6 2 1.100
1715 26 4.413718 10.513047 -5.250129 6 2 1.100
1716 26 1.492715 8.620091 -8.533211 6 2 1.100
1717 26 5.498016 4.554430 -1.885171 6 2 1.100
1718 26 -12.982320 5.787534 -8.979578 6 2 1.100
1719 26 -10.252685 -2.246577 -6.892137 6 2 1.100
1720 26 -13.965155 -1.601418 3.913870 6 2 1.100
1721 26 -10.241765 10.882045 -5.687729 6 2 1.100
1722 26 -3.921053 9.309164 -7.226948 6 2 1.100
1723 26 5.068379 8.166825 1.067150 6 2 1.100
1724 26 -7.301290 -4.241419 -9.124599 6 2 1.100
1725 26 -9.054308 10.947253 -3.934385 6 2 1.100
1726 26 -13.694933 -0.869763 8.955280 6 2 1.100
1727 26 -7.147469 9.197286 -2.333124 6 2 1.100
1728 26 -7.862881 -5.331695 -5.027693 6 2 1.100
1729 26 -6.663720 6.397566 -3.588505 6 2 1.100
1730 26 -14.043576 0.994399 3.042884 6 2 1.100
1731 26 -9.641653 3.104509 -2.296846 6 2 1.100
1732 26 -9.954661 -5.081639 -7.320030 6 2 1.100
1733 26 -11.206428 4.985903 -7.496799 6 2 1.100
1734 26 -14.319380 0.627903 8.604189 6 2 1.100
1735 26 -9.377590 9.212169 -0.350328 6 2 1.100
1736 26 0.252772 7.234478 -13.896559 6 2 1.100
1737 26 6.376727 10.371510 -7.479485 6 2 1.100
1738 26 -6.314103 4.241351 -11.619116 6 2 1.100
1739 26 5.030725 9.808040 0.644820 6 2 1.100
1740 26 -5.630941 7.310019 -8.996383 6 2 1.100
1741 26 9.280446 9.604763 -5.464506 6 2 1.100
1742 26 1.782512 3.670715 -10.506685 6 2 1.100
1743 26 4.283130 11.558345 -3.434918 6 2 1.100
1744 26 -2.102948 7.045342 -7.524834 6 2 1.100
1745 26 4.953434 4.621413 -5.043634 6 2 1.100
1746 26 7.420015 3.032887 6.626764 6 2 1.100
1747 26 -5.387809 9.598527 12.407317 6 2 1.100
1748 26 -11.875136 -5.934232 -5.542109 6 2 1.100
1749 26 -8.222075 6.757121 -3.284176 6 2 1.100
1750 26 -10.075941 -3.351974 5.235650 6 2 1.100
1751 26 -14.401411 4.793635 -1.051801 6 2 1.100
1752 26 0.294933 3.268850 -13.333597 6 2 1.100
1753 26 2.889311 8.992900 -1.599322 6 2 1.100
1754 26 -11.957644 3.220013 -7.875020 6 2 1.100
1755 26 -9.126084 -3.503822 -6.234461 6 2 1.100
1756 26 -12.205707 2.851648 5.123825 6 2 1.100
1757 26 -12.614535 6.893738 0.425450 6 2 1.100
1758 26 -5.879832 -8.046742 -7.720942 6 2 1.100
1759 26 -12.318765 9.828950 -0.301725 6 2 1.100
1760 26 -14.960549 2.150764 5.760157 6 2 1.100
1761 26 -13.587030 4.256737 -8.333934 6 2 1.100
1762 26 -8.313955 -6.316112 -3.251183 6 2 1.100
1763 26 -10.833654 8.166305 -7.006168 6 2 1.100
1764 26 -12.156574 -0.810207 9.677655 6 2 1.100
1765 26 -12.500864 5.291090 -1.793094 6 2 1.100
1766 26 -3.009114 5.052801 -5.986181 6 2 1.100
1767 26 7.259279 6.089046 -6.838220 6 2 1.100
1768 26 1.831665 7.584817 -11.164078 6 2 1.100
1769 26 6.838712 13.090257 -2.534014 6 2 1.100
1770 26 -2.810900 10.162593 -7.981354 6 2 1.100
1771 26 9.161580 10.178935 1.657322 6 2 1.100
1772 26 -4.561264 7.508999 -11.044385 6 2 1.100
1773 26 4.565261 9.836028 -3.595251 6 2 1.100
1774 26 -2.676940 5.097008 -13.482565 6 2 1.100
1775 26 6.224024 6.632953 -3.104299 6 2 1.100
1776 26 0.641723 5.286052 -8.963516 6 2 1.100
1777 26 4.323699 5.907271 -0.841127 6 2 1.100
1778 26 9.888750 2.054415 5.856682 6 2 1.100
1779 26 0.163513 5.560189 9.468845 6 2 1.100
1780 26 3.245805 -0.933646 2.723751 6 2 1.100
1781 26 4.563856 2.209781 -1.967618 6 2 1.100
1782 26 -5.647636 -6.989519 -9.247951 6 2 1.100
1783 26 -9.383763 7.694389 0.008691 6 2 1.100
1784 26 -11.370241 -1.619222 2.689622 6 2 1.100
1785 26 -10.548951 5.107062 -4.647738 6 2 1.100
1786 26 -5.349717 3.256043 -12.399420 6 2 1.100
1787 26 6.456518 3.533844 -3.338950 6 2 1.100
1788 26 -10.725571 -3.194188 -4.972601 6 2 1.100
1789 26 -10.851256 1.969792 4.516924 6 2 1.100
1790 26 -9.829157 8.416634 -8.337419 6 2 1.100
1791 26 -14.746183 6.603783 -3.466627 6 2 1.100
1792 26 -7.194103 -7.470849 -8.572722 6 2 1.100
1793 26 -14.949942 7.606511 -6.398239 6 2 1.100
1794 26 -14.117326 -2.289031 7.862864 6 2 1.100
1795 26 -10.947240 9.635571 -6.243686 6 2 1.100
1796 26 -11.537968 3.924093 -3.233089 6 2 1.100
1797 26 -11.589605 -5.595444 -7.183374 6 2 1.100
1798 26 -11.426901 -4.083790 4.354168 6 2 1.100
1799 26 -6.629275 8.781943 -5.161321 6 2 1.100
1800 26 -3.668431 10.366816 -9.212002 6 2 1.100
1801 26 9.046633 6.575585 -0.257112 6 2 1.100
1802 26 -5.643828 8.446160 -11.812436 6 2 1.100
1803 26 6.009884 6.846303 1.696952 6 2 1.100
1804 26 2.429068 8.810268 -11.622282 6 2 1.100
1805 26 2.893951 9.417007 -3.455928 6 2 1.100
1806 26 -2.947676 8.999782 -13.341131 6 2 1.100
1807 26 7.026388 3.601930 -1.612869 6 2 1.100
1808 26 -1.560841 9.431112 -7.296610 6 2 1.100
1809 26 3.924609 10.295784 -0.956932 6 2 1.100
1810 26 2.155839 6.498877 -8.837480 6 2 1.100
1811 26 8.166952 12.105584 -3.788814 6 2 1.100
1812 26 7.609108 0.289151 -4.304089 6 2 1.100
1813 26 -13.053486 6.309405 -4.208949 6 2 1.100
1814 26 -5.766714 -2.545862 -7.530920 6 2 1.100
1815 26 -13.136173 0.055133 4.225811 6 2 1.100
1816 26 -15.728000 4.282365 -3.608309 6 2 1.100
1817 26 -2.871918 9.324702 -9.910527 6 2 1.100
1818 26 6.742128 11.829378 0.303795 6 2 1.100
1819 26 -7.722504 -6.719581 -6.501527 6 2 1.100
1820 26 -13.599736 10.219998 -6.035568 6 2 1.100
1821 26 -14.789352 -0.239518 3.941367 6 2 1.100
1822 26 -10.152992 6.982093 -9.282755 6 2 1.100
1823 26 -12.152648 6.264707 -7.469495 6 2 1.100
1824 26 -4.545604 -6.890268 -5.377645 6 2 1.100
1825 26 -10.392947 -2.534353 3.804198 6 2 1.100
1826 26 -14.314477 7.508895 -0.724817 6 2 1.100
1827 26 -11.353144 -4.330204 -8.666033 6 2 1.100
1828 26 -13.390645 11.281459 -2.710675 6 2 1.100
1829 26 -15.663159 -1.665116 5.197513 6 2 1.100
1830 26 -10.292044 4.627930 -2.337792 6 2 1.100
1831 26 -5.601268 8.454305 -9.943113 6 2 1.100
1832 26 7.720127 6.748850 2.490829 6 2 1.100
1833 26 -0.303313 4.940071 -12.664034 6 2 1.100
1834 26 4.567300 7.123577 -2.440609 6 2 1.100
1835 26 0.727076 9.965391 -11.074646 6 2 1.100
1836 26 10.083399 4.430360 -0.789887 6 2 1.100
1837 26 -5.762909 5.460941 -12.854306 6 2 1.100
1838 26 6.431725 6.499576 -5.465898 6 2 1.100
1839 26 -1.610422 5.960834 -12.404068 6 2 1.100
1840 26 10.039785 8.800822 -4.102220 6 2 1.100
1841 26 -1.496809 4.143383 -6.222832 6 2 1.100
1842 26 8.462890 11.588834 -0.729039 6 2 1.100
1843 26 -0.852128 9.228107 3.328815 6 2 1.100
1844 26 -1.411291 10.332208 5.486787 6 2 1.100
1845 26 -7.196596 8.790334 11.643268 6 2 1.100
1846 26 -4.877950 -8.465322 -3.123945 6 2 1.100
1847 26 -6.780988 13.610148 -9.901106 6 2 1.100
1848 26 -4.956647 12.475669 -10.972995 6 2 1.100
1849 26 -0.497084 4.485982 14.313603 6 2 1.100
1850 26 -5.318039 17.586015 -1.478032 6 2 1.100
1851 26 -0.489725 4.409578 12.416867 6 2 1.100
1852 26 -11.040062 8.294567 4.974299 6 2 1.100
1853 26 -10.419213 6.869080 3.143161 6 2 1.100
1854 26 -11.807705 6.831377 3.995143 6 2 1.100
1855 26 -2.528772 -0.631704 2.924726 6 2 1.100
1856 26 -1.187241 -1.564695 3.317485 6 2 1.100
1857 26 5.280446 6.202971 -11.383492 6 2 1.100
1858 26 -5.407835 9.601431 4.823896 6 2 1.100
1859 26 -7.168976 7.442888 1.920688 6 2 1.100
1860 26 -6.553010 14.547257 4.412252 6 2 1.100
1861 26 -8.034090 11.944376 1.365290 6 2 1.100
1862 26 -10.409629 -6.009977 1.696669 6 2 1.100
1863 26 4.007770 3.443634 -13.302063 6 2 1.100
1864 26 1.367676 -5.209935 3.928600 6 2 1.100
1865 26 -4.685305 11.047754 4.953626 6 2 1.100
1866 26 -5.441615 5.085445 9.428784 6 2 1.100
1867 26 -5.629020 2.772775 4.276775 6 2 1.100
1868 26 0.994381 7.382007 3.495153 6 2 1.100
1869 26 -10.648004 14.804202 0.763937 6 2 1.100
1870 26 -6.468756 9.536795 1.215504 6 2 1.100
1871 26 -1.451891 17.176249 0.188070 6 2 1.100
1872 26 6.739859 -4.415902 4.485582 6 2 1.100
1873 26 -5.774263 7.735162 12.104991 6 2 1.100
1874 26 -12.672167 7.858769 2.800458 6 2 1.100
1875 26 -4.124964 10.232254 13.044244 6 2 1.100
1876 26 -13.972986 9.282029 3.434604 6 2 1.100
1877 26 -13.591540 9.765042 6.849882 6 2 1.100
1878 26 -15.023629 10.308010 3.033359 6 2 1.100
1879 26 -7.322095 0.026344 4.252572 6 2 1.100
1880 26 -11.519421 0.434320 -8.443086 6 2 1.100
1881 26 -3.256361 9.132071 1.135428 6 2 1.100
1882 26 -4.944568 10.141458 0.966066 6 2 1.100
1883 26 -7.294418 -3.443497 5.439311 6 2 1.100
1884 26 -8.972563 -9.260590 1.556699 6 2 1.100
1885 26 3.909125 0.565753 5.714847 6 2 1.100
1886 26 -13.831561 -5.091458 0.482532 6 2 1.100
1887 26 -13.002717 -6.477801 0.390215 6 2 1.100
1888 26 -0.144414 -2.227440 -1.257693 6 2 1.100
1889 26 -0.563751 0.609319 8.008651 6 2 1.100
1890 26 -7.946180 12.178577 5.563763 6 2 1.100
1891 26 2.815393 4.356115 11.684823 6 2 1.100
1892 26 5.093630 1.189937 8.220572 6 2 1.100
1893 26 4.355199 2.216487 8.631785 6 2 1.100
1894 26 4.114463 2.833248 -8.298950 6 2 1.100
1895 26 6.727510 6.292039 -10.668625 6 2 1.100
1896 26 6.145277 6.691344 -9.468204 6 2 1.100
1897 26 -5.812023 1.012344 -8.678237 6 2 1.100
1898 26 -6.194983 0.362470 -7.223136 6 2 1.100
1899 26 -5.865056 -0.390996 -8.796250 6 2 1.100
1900 26 -4.972798 0.196315 -5.795507 6 2 1.100
1901 26 -5.077624 -0.650524 -10.126733 6 2 1.100
1902 26 -3.748066 12.494057 -3.642366 6 2 1.100
1903 26 2.323903 0.776119 -3.713895 6 2 1.100
1904 26 -1.404758 14.423828 10.328256 6 2 1.100
1905 26 3.766392 -6.585730 -5.890475 6 2 1.100
1906 26 -2.899502 -3.298253 -7.853446 6 2 1.100
1907 26 -6.270127 -2.675744 12.870526 6 2 1.100
1908 26 -12.847868 5.091362 8.210741 6 2 1.100
1909 26 -13.424174 2.839481 6.231470 6 2 1.100
1910 26 2.603101 -1.711733 5.420195 6 2 1.100
1911 26 6.167207 -2.945139 7.344594 6 2 1.100
1912 26 -2.967285 8.408651 3.690099 6 2 1.100
1913 26 5.352413 1.419165 -4.046538 6 2 1.100
1914 26 -10.378997 5.238106 4.993313 6 2 1.100
1915 26 -8.285924 3.204323 12.351769 6 2 1.100
1916 26 -2.268960 4.043760 -2.925990 6 2 1.100
1917 26 0.384282 3.244900 -0.621460 6 2 1.100
1918 26 -12.432277 11.170296 7.140262 6 2 1.100
1919 26 -9.198295 -6.490067 -9.004872 6 2 1.100
1920 26 -0.776688 15.871944 1.482904 6 2 1.100
1921 26 -3.758017 14.134388 2.598759 6 2 1.100
1922 26 1.392452 4.409163 3.217447 6 2 1.100
1923 26 -0.109549 6.048214 -1.053281 6 2 1.100
1924 26 -11.926534 13.574487 -0.956210 6 2 1.100
1925 26 5.192106 -5.631150 -5.195484 6 2 1.100
1926 26 3.611574 -2.464215 -1.174477 6 2 1.100
1927 26 -2.838719 0.894852 -4.597894 6 2 1.100
1928 26 0.595389 10.085233 -0.949950 6 2 1.100
1929 26 1.454197 -5.477213 1.480727 6 2 1.100
1930 26 -5.294373 8.159684 0.784175 6 2 1.100
1931 26 0.196644 -0.153163 5.725756 6 2 1.100
1932 26 3.961622 4.353975 -12.381637 6 2 1.100
1933 26 2.729951 -6.746843 -3.428813 6 2 1.100
1934 26 9.343491 2.516603 4.045238 6 2 1.100
1935 26 -10.865575 8.060557 9.433227 6 2 1.100
1936 26 -2.808932 11.808354 2.091547 6 2 1.100
1937 26 -8.123492 12.400065 10.303165 6 2 1.100
1938 26 -5.716745 12.577451 8.915215 6 2 1.100
1939 26 -5.749140 13.951977 9.754431 6 2 1.100
1940 26 -6.348334 13.361738 7.501913 6 2 1.100
1941 26 -8.533409 11.474783 8.351811 6 2 1.100
1942 26 -9.189277 13.012934 8.605558 6 2 1.100
1943 26 -8.236610 13.839127 7.743239 6 2 1.100
1944 26 -6.568997 12.934772 10.539414 6 2 1.100
1945 26 0.211141 13.514370 -7.912525 6 2 1.100
1946 26 -3.043027 17.258073 4.639879 6 2 1.100
1947 26 0.071281 0.171715 2.048898 6 2 1.100
1948 26 -6.331646 16.630047 -0.693110 6 2 1.100
1949 26 -9.379030 -0.982903 -1.390355 6 2 1.100
1950 26 4.279293 13.810708 -5.515858 6 2 1.100
1951 26 -7.514668 13.938685 -5.411638 6 2 1.100
1952 26 2.884678 13.800236 -5.167740 6 2 1.100
1953 26 -7.411636 16.366689 -3.942445 6 2 1.100
1954 26 -4.343733 -3.964955 -1.283842 6 2 1.100
1955 26 -2.779771 16.786992 -4.758660 6 2 1.100
1956 26 -5.113078 13.645533 -1.265800 6 2 1.100
1957 26 -3.515749 15.800637 -3.003873 6 2 1.100
1958 26 7.386253 -3.572814 -2.704682 6 2 1.100
1959 26 4.963454 -4.115897 -2.719386 6 2 1.100
1960 26 6.026799 -2.756607 -3.174374 6 2 1.100
1961 26 -9.034262 -6.272262 9.485750 6 2 1.100
1962 26 1.111459 12.400712 -6.944506 6 2 1.100
1963 26 -0.488875 3.725744 6.816658 6 2 1.100
1964 26 -0.317702 13.529353 -9.546185 6 2 1.100
1965 26 -2.668586 -1.217971 -4.268287 6 2 1.100
1966 26 -7.423210 -0.735047 9.010214 6 2 1.100
1967 26 -4.260450 15.345635 7.732360 6 2 1.100
1968 26 4.296882 4.236983 -7.803639 6 2 1.100
1969 26 1.836708 6.806510 5.428359 6 2 1.100
1970 26 -12.418970 12.685006 0.594382 6 2 1.100
1971 26 4.542068 5.407719 -10.134985 6 2 1.100
1972 26 6.063547 11.247369 8.399477 6 2 1.100
1973 26 1.518877 0.897559 1.053925 6 2 1.100
1974 26 4.161351 -1.152496 7.397647 6 2 1.100
1975 26 -11.170358 14.769756 3.911842 6 2 1.100
1976 26 -2.836039 13.893135 -8.259487 6 2 1.100
1977 26 -9.102424 -4.515281 -0.562362 6 2 1.100
1978 26 -8.111950 -4.658528 0.839945 6 2 1.100
1979 26 -10.425172 11.710215 -9.573154 6 2 1.100
1980 26 1.910968 -4.778862 6.595922 6 2 1.100
1981 26 -10.321098 13.982236 -0.510033 6 2 1.100
1982 26 -3.666771 14.540040 6.780033 6 2 1.100
1983 26 -10.859890 5.255680 8.003774 6 2 1.100
1984 26 -12.826802 6.149404 7.077831 6 2 1.100
1985 26 4.172712 11.098234 -9.436737 6 2 1.100
1986 26 6.100330 -4.228280 -6.952299 6 2 1.100
1987 26 4.019825 -2.352591 -9.035533 6 2 1.100
1988 26 5.843708 -2.004059 -9.528972 6 2 1.100
1989 26 4.774174 -3.236099 -9.999801 6 2 1.100
1990 26 -8.319814 -6.869308 2.666963 6 2 1.100
1991 26 -8.055079 -5.361726 3.179764 6 2 1.100
1992 26 -5.116457 -4.051283 12.449762 6 2 1.100
1993 26 -4.152235 -3.013498 13.122931 6 2 1.100
1994 26 -8.914151 13.225749 2.305212 6 2 1.100
1995 26 -4.790644 -2.249032 -1.573337 6 2 1.100
1996 26 -12.038959 -6.089804 2.726457 6 2 1.100
1997 26 -2.683614 -8.227237 -1.007530 6 2 1.100
1998 26 1.983041 -4.254255 2.412218 6 2 1.100
1999 26 3.366617 -0.876002 -4.164061 6 2 1.100
2000 26 0.102702 14.971374 7.885555 6 2 1.100
2001 26 -2.820199 13.685260 10.621141 6 2 1.100
2002 26 3.732249 1.937591 11.383708 6 2 1.100
2003 26 5.756402 -0.678035 10.973905 6 2 1.100
2004 26 -14.239457 -1.128072 0.153692 6 2 1.100
2005 26 2.031142 0.777500 8.925239 6 2 1.100
2006 26 -1.577166 5.050309 3.850909 6 2 1.100
2007 26 4.777629 -1.272963 -3.416121 6 2 1.100
2008 26 -7.101649 -9.745907 3.664286 6 2 1.100
2009 26 -9.571598 -8.327894 2.600680 6 2 1.100
2010 26 -5.887914 11.377260 -11.368428 6 2 1.100
2011 26 -7.723093 -7.751131 -1.239664 6 2 1.100
2012 26 3.646474 0.751399 -9.862368 6 2 1.100
2013 26 -3.301977 -0.713617 -6.043377 6 2 1.100
2014 26 -14.306458 10.679482 5.856075 6 2 1.100
2015 26 -11.845176 9.976329 6.233220 6 2 1.100
2016 26 -6.989265 6.365118 8.664553 6 2 1.100
2017 26 8.340490 -2.890517 1.651426 6 2 1.100
2018 26 1.301908 5.992038 2.451121 6 2 1.100
2019 26 -1.175620 10.295544 7.034124 6 2 1.100
2020 26 -4.865965 -1.718486 13.064976 6 2 1.100
2021 26 -6.595710 -4.046710 11.946894 6 2 1.100
2022 26 -6.149187 -2.819589 10.642792 6 2 1.100
2023 26 -11.382145 13.871535 5.412557 6 2 1.100
2024 26 -4.391832 16.000427 -7.698819 6 2 1.100
2025 26 -9.307839 2.983571 10.755322 6 2 1.100
2026 26 -2.638406 2.874078 5.977075 6 2 1.100
2027 26 3.159882 1.337585 -6.815602 6 2 1.100
2028 26 3.667672 -0.466604 -7.875532 6 2 1.100
2029 26 -9.784022 4.032257 -0.801565 6 2 1.100
2030 26 -8.081528 8.374788 -3.517690 6 2 1.100
2031 26 -14.302632 -3.081318 -4.555648 6 2 1.100
2032 26 4.705419 -6.635897 -0.537202 6 2 1.100
2033 26 -0.918345 13.758371 7.609988 6 2 1.100
2034 26 3.313996 -1.972149 0.192245 6 2 1.100
2035 26 -7.148034 2.755809 2.103809 6 2 1.100
2036 26 -14.976983 9.392724 -3.748504 6 2 1.100
2037 26 -5.749989 0.075889 -1.210949 6 2 1.100
2038 26 0.268855 10.924272 11.077701 6 2 1.100
2039 26 -8.624729 0.297279 12.173438 6 2 1.100
2040 26 -1.928282 15.301176 -4.462943 6 2 1.100
2041 26 -13.118247 11.832459 5.821270 6 2 1.100
2042 26 0.340715 -2.510986 2.684868 6 2 1.100
2043 26 0.279053 10.149255 12.880608 6 2 1.100
2044 26 -2.050919 -10.322269 1.192505 6 2 1.100
2045 26 -10.162389 0.007713 11.250564 6 2 1.100
2046 26 -2.666040 14.199970 1.660938 6 2 1.100
2047 26 6.945647 3.339873 -10.285985 6 2 1.100
2048 26 -0.465789 -8.902127 6.439147 6 2 1.100
2049 26 -6.099322 14.653436 8.446152 6 2 1.100
2050 26 9.697136 3.677169 3.243234 6 2 1.100
2051 26 -13.127639 5.062120 10.030824 6 2 1.100
2052 26 -1.491104 10.328549 10.995068 6 2 1.100
2053 26 -4.572927 17.284133 2.257227 6 2 1.100
2054 26 6.085358 4.680496 8.176965 6 2 1.100
2055 26 -7.530333 -3.135387 11.358703 6 2 1.100
2056 26 5.863168 0.226391 -2.868783 6 2 1.100
2057 26 3.372970 15.260211 -3.754084 6 2 1.100
2058 26 -0.540938 8.800212 13.446157 6 2 1.100
2059 26 -6.706291 17.085013 -2.405546 6 2 1.100
2060 26 1.315066 8.444580 11.566174 6 2 1.100
2061 26 -6.795366 -9.186540 -0.660987 6 2 1.100
2062 26 -12.730314 -1.477121 -0.116712 6 2 1.100
2063 26 5.212961 9.231725 9.681613 6 2 1.100
2064 26 6.447418 9.163277 10.335661 6 2 1.100
2065 26 -12.278710 -0.197131 0.867832 6 2 1.100
2066 26 5.624096 9.387744 7.973357 6 2 1.100
2067 26 3.517332 11.574230 10.552177 6 2 1.100
2068 26 -6.204999 -7.876677 0.102305 6 2 1.100
2069 26 -13.546347 0.606121 0.538146 6 2 1.100
2070 26 -4.490944 -7.851189 -1.679983 6 2 1.100
2071 26 6.275886 7.926038 8.661215 6 2 1.100
2072 26 3.378484 9.068673 10.921441 6 2 1.100
2073 26 -11.072343 2.005037 1.640372 6 2 1.100
2074 26 4.615329 10.856630 8.199709 6 2 1.100
2075 26 4.416562 7.759818 10.518378 6 2 1.100
2076 26 -13.840821 2.446070 0.351900 6 2 1.100
2077 26 -5.330418 -9.237808 -1.177901 6 2 1.100
2078 26 6.783796 9.795314 8.882592 6 2 1.100
2079 26 4.603559 12.057384 9.277870 6 2 1.100
2080 26 2.775474 10.461986 10.013381 6 2 1.100
2081 26 -9.803388 1.187264 1.252124 6 2 1.100
2082 26 -14.025323 -0.120828 -0.980530 6 2 1.100
2083 26 -12.058450 -6.778208 -1.739204 6 2 1.100
2084 26 4.289407 10.302235 11.191358 6 2 1.100
2085 26 3.214493 14.722581 -2.313166 6 2 1.100
2086 26 5.314817 -4.707515 2.244370 6 2 1.100
2087 26 5.352076 -2.531884 8.305634 6 2 1.100
2088 26 2.803860 -0.674153 6.761720 6 2 1.100
2089 26 -4.535196 17.100198 3.753072 6 2 1.100
2090 26 4.889599 0.895036 12.579852 6 2 1.100
2091 26 1.736731 6.531381 9.771856 6 2 1.100
2092 26 3.756134 7.975156 3.700673 6 2 1.100
2093 26 2.999302 5.402370 6.499021 6 2 1.100
2094 26 1.652705 8.968152 5.888689 6 2 1.100
2095 26 3.056278 3.640650 5.638761 6 2 1.100
2096 26 -3.226375 7.693779 7.148283 6 2 1.100
2097 26 1.159606 3.374607 6.378284 6 2 1.100
2098 26 -0.480757 5.622460 5.085446 6 2 1.100
2099 26 7.621487 -4.869608 -0.374473 6 2 1.100
2100 26 -10.801490 8.553580 7.610062 6 2 1.100
2101 26 -4.664695 13.239677 -9.922777 6 2 1.100
2102 26 -9.920274 6.847634 12.054425 6 2 1.100
2103 26 -8.223949 6.650833 12.137575 6 2 1.100
2104 26 -9.080487 8.994190 9.956531 6 2 1.100
2105 26 1.903458 12.392692 -5.200709 6 2 1.100
2106 26 -11.104659 -0.741608 0.197734 6 2 1.100
2107 26 -2.741758 13.645255 -2.364181 6 2 1.100
2108 26 -14.948561 1.555930 0.910536 6 2 1.100
2109 26 -12.241825 -0.378132 -1.255368 6 2 1.100
2110 26 -13.104835 1.020833 -1.228228 6 2 1.100
2111 26 -14.929612 1.551991 -0.626087 6 2 1.100
2112 26 -12.828087 2.193424 1.432162 6 2 1.100
2113 26 -1.852690 17.700078 1.621166 6 2 1.100
2114 26 -1.432093 17.677139 3.202191 6 2 1.100
2115 26 -2.240275 15.050750 3.945237 6 2 1.100
2116 26 1.246625 -7.301793 -2.605876 6 2 1.100
2117 26 -4.876132 16.148899 4.744274 6 2 1.100
2118 26 -5.437037 5.055360 -14.973244 6 2 1.100
2119 26 -4.611333 2.644452 -15.116248 6 2 1.100
2120 26 -6.936711 4.738545 -14.158614 6 2 1.100
2121 26 -6.013449 3.152821 -14.498392 6 2 1.100
2122 26 -5.266832 11.651446 -2.988117 6 2 1.100
2123 26 -8.870771 14.747520 -3.436021 6 2 1.100
2124 26 -4.366614 13.913865 0.069656 6 2 1.100
2125 26 -13.128507 -5.694782 -2.468047 6 2 1.100
2126 26 2.544464 6.688225 3.326617 6 2 1.100
2127 26 4.420801 16.195581 3.476267 6 2 1.100
2128 26 -13.414716 7.994392 9.069926 6 2 1.100
2129 26 -7.995889 -3.368536 0.229757 6 2 1.100
2130 26 -10.070757 7.165302 8.080763 6 2 1.100
2131 26 3.121143 -4.878340 1.650413 6 2 1.100
2132 26 -14.930943 -1.730731 -5.716598 6 2 1.100
2133 26 -4.939804 8.652127 13.438588 6 2 1.100
2134 26 -10.001442 12.771645 6.038611 6 2 1.100
2135 26 0.636342 1.083454 12.736301 6 2 1.100
2136 26 -9.628523 15.037947 5.908092 6 2 1.100
2137 26 -2.810803 15.340738 -7.565423 6 2 1.100
2138 26 3.957272 4.327216 2.301572 6 2 1.100
2139 26 -0.653412 5.140067 -3.374484 6 2 1.100
2140 26 -6.740212 0.478921 10.845965 6 2 1.100
2141 26 4.662278 5.478042 2.430607 6 2 1.100
2142 26 -6.092861 12.843631 -2.452684 6 2 1.100
2143 26 -1.820426 12.754352 8.987810 6 2 1.100
2144 26 3.583965 0.800328 -4.602741 6 2 1.100
2145 26 3.126600 -0.307876 -2.745501 6 2 1.100
2146 26 -7.992721 14.975265 4.504177 6 2 1.100
2147 26 -8.368833 12.766843 4.003940 6 2 1.100
2148 26 -8.601474 10.865936 5.490251 6 2 1.100
2149 26 -6.419955 11.745348 1.808458 6 2 1.100
2150 26 -6.863101 11.240176 5.168109 6 2 1.100
2151 26 -9.981123 12.371280 3.723019 6 2 1.100
2152 26 -7.665907 14.214066 3.147218 6 2 1.100
2153 26 -5.678809 13.272868 3.532927 6 2 1.100
2154 26 -9.387783 11.709672 2.402780 6 2 1.100
2155 26 -6.768815 13.132940 2.590817 6 2 1.100
2156 26 -7.985779 13.615904 5.276573 6 2 1.100
2157 26 -8.195941 10.523815 2.233122 6 2 1.100
2158 26 -2.533768 15.601014 7.121229 6 2 1.100
2159 26 1.819201 5.701902 12.465439 6 2 1.100
2160 26 -12.450327 8.915166 8.408346 6 2 1.100
2161 26 -2.724584 -2.417310 -0.805724 6 2 1.100
2162 26 -3.193453 -2.753111 -2.186959 6 2 1.100
2163 26 -6.461203 -1.588598 1.222489 6 2 1.100
2164 26 -4.105014 3.307508 14.700254 6 2 1.100
2165 26 -11.205069 13.539950 1.700681 6 2 1.100
2166 26 -0.770308 14.867617 -7.525107 6 2 1.100
2167 26 -0.759422 0.748673 14.322278 6 2 1.100
2168 26 -0.912869 0.186659 13.051441 6 2 1.100
2169 26 1.447305 -1.110962 -1.713924 6 2 1.100
2170 26 -7.561152 -2.296560 8.950816 6 2 1.100
2171 26 -1.959487 8.827332 7.484314 6 2 1.100
2172 26 -3.107775 17.437156 -3.124654 6 2 1.100
2173 26 -3.123827 14.089315 9.306663 6 2 1.100
2174 26 2.102655 5.204195 5.210035 6 2 1.100
2175 26 -16.745403 4.639969 0.298345 6 2 1.100
2176 26 -8.043393 0.410188 13.985302 6 2 1.100
2177 26 -9.823104 8.499076 2.679931 6 2 1.100
2178 26 -0.569299 10.050087 8.416463 6 2 1.100
2179 26 4.876074 2.423314 10.428792 6 2 1.100
2180 26 4.502897 -0.529908 11.907199 6 2 1.100
2181 26 3.986303 -7.088728 -2.919424 6 2 1.100
2182 26 -6.853847 8.468369 7.662697 6 2 1.100
2183 26 -1.866922 6.596248 -0.930512 6 2 1.100
2184 26 0.501153 6.368334 13.555556 6 2 1.100
2185 26 -1.440168 7.004653 13.517482 6 2 1.100
2186 26 -15.487373 -3.805590 -2.672432 6 2 1.100
2187 26 3.101031 -3.183915 1.686104 6 2 1.100
2188 26 6.327107 1.823852 -0.020559 6 2 1.100
2189 26 5.983779 1.427897 -1.431283 6 2 1.100
2190 26 7.257579 13.899289 1.907211 6 2 1.100
2191 26 2.757230 4.403079 0.958791 6 2 1.100
2192 26 0.626313 15.965787 -3.409028 6 2 1.100
2193 26 -2.531635 6.529244 6.391775 6 2 1.100
2194 26 4.818887 7.754549 6.745579 6 2 1.100
2195 26 5.152794 0.356939 -0.464527 6 2 1.100
2196 26 -9.643517 1.348653 10.505407 6 2 1.100
2197 26 -8.660781 4.560523 13.135623 6 2 1.100
2198 26 5.203118 -0.061576 -4.287642 6 2 1.100
2199 26 -13.577064 -2.937002 -2.742731 6 2 1.100
2200 26 -7.521657 -6.496507 0.194233 6 2 1.100
2201 26 4.642991 -0.486098 -9.884410 6 2 1.100
2202 26 -12.263933 -0.739183 -4.565391 6 2 1.100
2203 26 -4.098420 15.012381 3.855983 6 2 1.100
2204 26 0.628192 12.943205 -0.293164 6 2 1.100
2205 26 2.948207 15.773190 6.446171 6 2 1.100
2206 26 -8.233604 4.432084 8.521729 6 2 1.100
2207 26 4.857621 0.887867 -6.108792 6 2 1.100
2208 26 -8.860506 8.098104 11.929293 6 2 1.100
2209 26 -1.256640 2.422320 -2.022369 6 2 1.100
2210 26 -3.241438 14.593039 -1.325413 6 2 1.100
2211 26 -1.766376 10.514440 0.692228 6 2 1.100
2212 26 4.057374 -4.297334 -9.081128 6 2 1.100
2213 26 8.084566 2.907557 4.649120 6 2 1.100
2214 26 -13.107079 6.700924 9.861022 6 2 1.100
2215 26 -8.247281 11.341275 -9.735436 6 2 1.100
2216 26 -5.539669 6.642673 14.127275 6 2 1.100
2217 26 -6.982204 0.848334 1.653870 6 2 1.100
2218 26 -6.867851 -0.187677 2.671189 6 2 1.100
2219 26 1.032526 15.551841 -6.704789 6 2 1.100
2220 26 -6.434883 11.687799 -7.776963 6 2 1.100
2221 26 -6.453562 13.072745 -8.565480 6 2 1.100
2222 26 -5.264657 15.067284 0.073743 6 2 1.100
2223 26 -5.347797 14.716644 -8.367483 6 2 1.100
2224 26 -5.996326 -9.483462 -2.888251 6 2 1.100
2225 26 -1.553302 12.410609 -0.439976 6 2 1.100
2226 26 -6.238330 -2.719641 -0.560815 6 2 1.100
2227 26 -3.704786 -0.747212 0.232223 6 2 1.100
2228 26 -6.013020 -3.258236 1.008626 6 2 1.100
2229 26 -3.075255 -2.753165 0.678824 6 2 1.100
2230 26 -5.289132 -4.358357 -0.011659 6 2 1.100
2231 26 8.946899 -0.719903 4.572567 6 2 1.100
2232 26 -0.455719 13.144658 -1.448443 6 2 1.100
2233 26 5.675463 10.492071 4.026358 6 2 1.100
2234 26 4.988717 11.486994 3.140356 6 2 1.100
2235 26 -5.853247 1.871628 13.891577 6 2 1.100
2236 26 -6.710347 12.539752 -10.899767 6 2 1.100
2237 26 -7.877706 11.526784 -11.219224 6 2 1.100
2238 26 -7.850719 9.843410 -10.701975 6 2 1.100
2239 26 -9.411835 -4.824444 9.673277 6 2 1.100
2240 26 5.887907 -6.006622 -1.855672 6 2 1.100
2241 26 6.407042 -3.707578 -0.552064 6 2 1.100
2242 26 -1.602084 9.741109 12.932359 6 2 1.100
2243 26 5.059483 -6.167446 -3.774015 6 2 1.100
2244 26 -6.657537 14.923089 -7.507708 6 2 1.100
2245 26 4.928989 8.787608 11.516857 6 2 1.100
2246 26 1.117224 11.785941 -2.536182 6 2 1.100
2247 26 -5.123016 7.503195 10.058187 6 2 1.100
2248 26 -5.343877 5.572831 2.533989 6 2 1.100
2249 26 5.204412 -1.165286 8.289331 6 2 1.100
2250 26 -3.271184 -0.699974 13.916436 6 2 1.100
2251 26 -11.609297 -1.229280 -3.273676 6 2 1.100
2252 26 -9.640001 -6.339606 6.298173 6 2 1.100
2253 26 6.017940 -1.163893 2.964122 6 2 1.100
2254 26 -8.168300 -6.789118 6.412826 6 2 1.100
2255 26 8.662093 4.820427 5.209320 6 2 1.100
2256 26 -12.031590 7.839601 10.496486 6 2 1.100
2257 26 -7.978305 -1.537144 -2.105091 6 2 1.100
2258 26 -8.233621 -1.021828 -0.205007 6 2 1.100
2259 26 -7.424367 3.283664 0.544793 6 2 1.100
2260 26 -9.376361 -1.271164 -2.896590 6 2 1.100
2261 26 -11.214562 -7.458592 -0.779291 6 2 1.100
2262 26 -6.037882 2.492657 -1.523218 6 2 1.100
2263 26 -8.863296 -1.554764 0.993108 6 2 1.100
2264 26 -13.630949 -6.056417 -1.056728 6 2 1.100
2265 26 -6.177172 3.459012 -0.076240 6 2 1.100
2266 26 -3.319906 0.943981 2.529287 6 2 1.100
2267 26 2.680633 16.984894 2.158982 6 2 1.100
2268 26 -1.513736 -9.465347 -2.206864 6 2 1.100
2269 26 -1.580072 12.867878 3.480391 6 2 1.100
2270 26 -16.977605 6.133623 0.498542 6 2 1.100
2271 26 2.021173 15.523563 4.759376 6 2 1.100
2272 26 3.808824 0.437631 10.474852 6 2 1.100
2273 26 6.239964 1.346547 11.718883 6 2 1.100
2274 26 6.059895 -0.079799 9.640259 6 2 1.100
2275 26 3.511789 1.510928 13.038400 6 2 1.100
2276 26 4.857643 2.689760 12.396889 6 2 1.100
2277 26 3.857318 2.128274 -4.370563 6 2 1.100
2278 26 0.774950 13.171082 8.405217 6 2 1.100
2279 26 0.332898 14.651828 9.930670 6 2 1.100
2280 26 -1.481761 -10.087769 4.058442 6 2 1.100
2281 26 -6.324679 -3.269305 6.727940 6 2 1.100
2282 26 -8.677244 -9.108461 3.849038 6 2 1.100
2283 26 5.306457 0.305707 6.857858 6 2 1.100
2284 26 -3.263087 -4.082443 -0.409135 6 2 1.100
2285 26 -4.383254 -2.865325 0.122335 6 2 1.100
2286 26 -5.441191 -0.299018 -2.543150 6 2 1.100
2287 26 -11.336362 6.325231 7.026264 6 2 1.100
2288 26 -13.879001 7.231114 7.794695 6 2 1.100
2289 26 -0.380715 17.378897 1.413424 6 2 1.100
2290 26 2.010671 13.254818 4.485081 6 2 1.100
2291 26 1.425237 11.060491 6.260444 6 2 1.100
2292 26 -4.055291 1.707577 4.358876 6 2 1.100
2293 26 -3.253135 0.348069 4.627415 6 2 1.100
2294 26 -8.756401 -6.433873 -0.999967 6 2 1.100
2295 26 4.476447 -0.638360 -11.160747 6 2 1.100
2296 26 2.717232 -4.851930 0.274394 6 2 1.100
2297 26 1.427243 17.114691 -2.615719 6 2 1.100
2298 26 3.937914 15.823288 1.758917 6 2 1.100
2299 26 2.845378 16.346393 -2.477393 6 2 1.100
2300 26 0.896409 16.193522 -1.825614 6 2 1.100
2301 26 1.419713 15.543661 6.436722 6 2 1.100
2302 26 -1.745036 2.997250 9.944149 6 2 1.100
2303 26 -1.365430 6.531488 9.323193 6 2 1.100
2304 26 2.329537 4.257559 7.145304 6 2 1.100
2305 26 -0.379855 4.992897 8.013444 6 2 1.100
2306 26 2.102012 6.577739 7.094838 6 2 1.100
2307 26 0.898557 9.910222 2.884934 6 2 1.100
2308 26 -0.893434 6.501208 2.593565 6 2 1.100
2309 26 -10.499450 2.940174 12.952085 6 2 1.100
2310 26 -6.905963 3.943358 11.727053 6 2 1.100
2311 26 -6.982421 3.358154 13.431262 6 2 1.100
2312 26 -9.222193 1.558421 13.592997 6 2 1.100
2313 26 -6.691715 -0.506874 12.740268 6 2 1.100
2314 26 -7.398898 2.159733 14.377858 6 2 1.100
2315 26 -8.472050 4.262774 11.200146 6 2 1.100
2316 26 -8.144478 -1.049181 13.095640 6 2 1.100
2317 26 -6.143575 0.286381 14.069064 6 2 1.100
2318 26 -9.050333 -1.422807 11.467819 6 2 1.100
2319 26 -5.930656 0.759193 12.273278 6 2 1.100
2320 26 -6.647836 1.990991 10.491072 6 2 1.100
2321 26 -5.015198 14.703684 -4.409210 6 2 1.100
2322 26 -0.384491 -4.237301 -5.970648 6 2 1.100
2323 26 -5.872949 12.956821 -5.489096 6 2 1.100
2324 26 -4.262180 -0.553934 -7.543391 6 2 1.100
2325 26 -3.945318 -2.091668 3.873605 6 2 1.100
2326 26 -7.597502 13.180771 -2.088758 6 2 1.100
2327 26 -6.544274 14.565272 -4.163495 6 2 1.100
2328 26 -3.902294 13.563270 -5.360761 6 2 1.100
2329 26 -2.098092 16.470015 -1.898917 6 2 1.100
2330 26 -8.564007 14.863695 -1.928734 6 2 1.100
2331 26 -4.524964 16.043991 -1.901350 6 2 1.100
2332 26 -5.737082 15.230774 -1.365218 6 2 1.100
2333 26 6.138190 -2.136549 4.084197 6 2 1.100
2334 26 -6.993456 14.462307 -1.454048 6 2 1.100
2335 26 4.376652 -2.311620 4.455370 6 2 1.100
2336 26 -5.681646 16.072120 -3.230034 6 2 1.100
2337 26 -3.637590 15.096176 -4.311155 6 2 1.100
2338 26 -13.967856 -1.419815 -2.788281 6 2 1.100
2339 26 -6.978540 15.750089 -5.486669 6 2 1.100
2340 26 -8.391243 15.152083 -4.771318 6 2 1.100
2341 26 -4.329410 13.605369 -3.191167 6 2 1.100
2342 26 -4.813092 12.215552 -4.751030 6 2 1.100
2343 26 9.206924 6.930162 5.229677 6 2 1.100
2344 26 -6.398495 13.153680 5.180265 6 2 1.100
2345 26 -3.644697 -7.251677 3.243339 6 2 1.100
2346 26 -10.434047 6.253808 9.413791 6 2 1.100
2347 26 -3.029619 17.484095 3.058558 6 2 1.100
2348 26 -16.055343 -2.409885 -1.034574 6 2 1.100
2349 26 4.353354 -7.224984 1.328401 6 2 1.100
2350 26 3.402496 -7.622319 2.437584 6 2 1.100
2351 26 1.194758 11.036970 4.449794 6 2 1.100
2352 26 -0.925902 5.553450 6.638350 6 2 1.100
2353 26 -11.806271 9.346037 9.787276 6 2 1.100
2354 26 -4.289339 2.172596 1.890937 6 2 1.100
2355 26 -1.588480 8.667755 8.967972 6 2 1.100
2356 26 -12.943801 -3.399717 -1.171539 6 2 1.100
2357 26 -0.066168 5.166206 3.151981 6 2 1.100
2358 26 0.298432 9.223345 -3.956344 6 2 1.100
2359 26 5.007181 16.114334 0.011904 6 2 1.100
2360 26 8.879440 10.588049 4.691659 6 2 1.100
2361 26 6.353790 15.198554 -1.024222 6 2 1.100
2362 26 8.021994 11.722141 5.696521 6 2 1.100
2363 26 8.027678 -2.316191 6.190113 6 2 1.100
2364 26 4.758477 -7.241137 3.398439 6 2 1.100
2365 26 -6.100745 11.900867 3.875066 6 2 1.100
2366 26 -8.330297 16.252872 -2.733470 6 2 1.100
2367 26 -1.216361 3.571826 1.612770 6 2 1.100
2368 26 -1.076480 16.242743 3.059210 6 2 1.100
2369 26 -13.080420 -3.578390 -3.918203 6 2 1.100
2370 26 -0.705347 6.086835 14.471771 6 2 1.100
2371 26 -9.111457 5.283048 2.717774 6 2 1.100
2372 26 -12.184954 1.874545 -0.198988 6 2 1.100
2373 26 -16.604018 7.689358 1.174416 6 2 1.100
2374 26 -9.269319 14.302632 3.274976 6 2 1.100
2375 26 -1.350131 -0.249688 0.369702 6 2 1.100
2376 26 2.669238 -0.786511 -0.571000 6 2 1.100
2377 26 -7.144682 4.869361 6.911319 6 2 1.100
2378 26 7.746129 3.220135 -8.835990 6 2 1.100
2379 26 1.582089 4.865201 13.991044 6 2 1.100
2380 26 -4.048381 -9.668370 -3.689518 6 2 1.100
2381 26 -3.425092 16.317719 1.435838 6 2 1.100
2382 26 0.630414 4.507694 5.419790 6 2 1.100
2383 26 2.124902 16.071345 -4.119199 6 2 1.100
2384 26 -8.995125 2.970972 2.703134 6 2 1.100
2385 26 -11.750015 6.250850 10.869252 6 2 1.100
2386 26 -9.769207 -0.577488 12.711658 6 2 1.100
2387 26 -8.930793 15.446942 0.955180 6 2 1.100
2388 26 6.444484 3.935312 -8.416588 6 2 1.100
2389 26 -3.883972 1.412259 8.329349 6 2 1.100
2390 26 -2.430188 0.994008 14.165638 6 2 1.100
2391 26 -8.729412 14.108756 0.285128 6 2 1.100
2392 26 -0.239157 -8.323263 0.932090 6 2 1.100
2393 26 6.141302 1.897141 -10.696111 6 2 1.100
2394 26 -1.348781 2.100187 13.765033 6 2 1.100
2395 26 -5.149140 0.370847 4.472424 6 2 1.100
2396 26 -5.842246 9.990206 2.595787 6 2 1.100
2397 26 1.051662 -0.263282 -11.297147 6 2 1.100
2398 26 1.778291 -3.044276 4.088826 6 2 1.100
2399 26 2.788061 -5.248837 3.848461 6 2 1.100
2400 26 5.127893 6.888099 5.220071 6 2 1.100
2401 26 -3.824290 4.019374 13.348342 6 2 1.100
2402 26 -6.539199 5.495185 14.177405 6 2 1.100
2403 26 -6.298013 5.897191 12.694830 6 2 1.100
2404 26 4.710417 8.452439 5.183876 6 2 1.100
2405 26 -6.374666 10.968010 11.093828 6 2 1.100
2406 26 1.581304 8.250320 9.211734 6 2 1.100
2407 26 1.826111 3.054700 13.111490 6 2 1.100
2408 26 6.564767 4.653773 -11.060032 6 2 1.100
2409 26 4.412189 3.041616 -10.308831 6 2 1.100
2410 26 2.477825 10.200484 5.405965 6 2 1.100
2411 26 -0.558444 13.154612 11.202269 6 2 1.100
2412 26 0.803820 3.260580 14.099385 6 2 1.100
2413 26 0.346423 -8.035324 -1.129018 6 2 1.100
2414 26 -4.386866 -0.699291 5.358144 6 2 1.100
2415 26 -1.314031 14.592575 2.488950 6 2 1.100
2416 26 -3.534022 17.521885 -1.575165 6 2 1.100
2417 26 0.592422 2.959434 -2.365907 6 2 1.100
2418 26 -7.170974 11.836624 7.809047 6 2 1.100
2419 26 -7.072287 -5.823337 8.737971 6 2 1.100
2420 26 -3.673637 8.711952 12.391697 6 2 1.100
2421 26 -6.164226 10.393614 9.438752 6 2 1.100
2422 26 -6.824305 8.683298 13.155415 6 2 1.100
2423 26 -4.182877 0.226495 -1.521901 6 2 1.100
2424 26 4.758685 -0.626659 -2.024288 6 2 1.100
2425 26 1.428511 4.975363 8.908256 6 2 1.100
2426 26 -2.702155 6.454774 3.627446 6 2 1.100
2427 26 3.551227 6.615599 5.612094 6 2 1.100
2428 26 -10.974988 -6.701140 3.374934 6 2 1.100
2429 26 -12.211736 -5.011724 1.806002 6 2 1.100
2430 26 -1.029994 3.094610 11.207170 6 2 1.100
2431 26 0.255520 -8.487657 -3.458824 6 2 1.100
2432 26 -14.052130 -0.885218 -7.263878 6 2 1.100
2433 26 -8.990441 -7.687697 -0.345960 6 2 1.100
2434 26 -1.678717 -4.910919 4.064056 6 2 1.100
2435 26 3.936762 0.555157 -11.410215 6 2 1.100
2436 26 -3.244251 15.819017 4.928490 6 2 1.100
2437 26 -0.857980 1.885825 9.432494 6 2 1.100
2438 26 -3.993692 12.256984 -2.021479 6 2 1.100
2439 26 -1.575924 8.683825 11.661396 6 2 1.100
2440 26 -9.468759 8.423019 -11.289997 6 2 1.100
2441 26 -1.289272 6.076763 0.338396 6 2 1.100
2442 26 -9.077445 3.696631 4.598523 6 2 1.100
2443 26 0.073345 -2.415015 -7.725032 6 2 1.100
2444 26 -2.374814 5.723378 -2.343407 6 2 1.100
2445 26 -8.581426 3.084225 5.957915 6 2 1.100
2446 26 1.457442 10.736607 11.798529 6 2 1.100
2447 26 -8.101025 1.728189 10.027780 6 2 1.100
2448 26 -10.628503 -3.897599 0.009179 6 2 1.100
2449 26 1.748649 -1.093044 1.057091 6 2 1.100
2450 26 2.196203 -3.052768 -0.252978 6 2 1.100
2451 26 6.693070 2.275608 10.216097 6 2 1.100
2452 26 6.999406 0.803446 10.215570 6 2 1.100
2453 26 -11.980929 14.146551 0.434736 6 2 1.100
2454 26 -5.396179 -9.362338 7.388401 6 2 1.100
2455 26 -4.205973 0.659556 12.003654 6 2 1.100
2456 26 -7.476414 -0.812036 11.354161 6 2 1.100
2457 26 -7.409053 3.344562 10.343140 6 2 1.100
2458 26 -3.827430 -1.682411 10.885508 6 2 1.100
2459 26 -4.706228 -2.577953 1.621488 6 2 1.100
2460 26 -10.000252 -3.985293 -1.647666 6 2 1.100
2461 26 -6.528453 -0.783471 -0.312595 6 2 1.100
2462 26 -14.006313 -4.473265 -0.752975 6 2 1.100
2463 26 0.465578 6.371831 6.717984 6 2 1.100
2464 26 -3.894758 9.181292 10.603277 6 2 1.100
2465 26 2.908715 5.112553 3.901681 6 2 1.100
2466 26 2.985575 8.655581 7.714008 6 2 1.100
2467 26 -2.001722 14.996464 -2.722453 6 2 1.100
2468 26 5.128595 4.335325 -11.119490 6 2 1.100
2469 26 -12.297470 9.507590 2.427956 6 2 1.100
2470 26 3.986363 6.463124 4.160876 6 2 1.100
2471 26 -6.984360 -1.715339 7.480526 6 2 1.100
2472 26 -15.750784 9.840270 0.639000 6 2 1.100
2473 26 -10.549408 4.060613 9.932967 6 2 1.100
2474 26 -3.008004 2.918996 11.791409 6 2 1.100
2475 26 0.723638 -8.684691 5.486070 6 2 1.100
2476 26 -3.389149 -6.502402 -1.135897 6 2 1.100
2477 26 -9.096161 -7.924990 4.962979 6 2 1.100
2478 26 -2.155250 -9.308461 0.075043 6 2 1.100
2479 26 -0.354099 -6.514543 1.713370 6 2 1.100
2480 26 -5.833650 -6.110352 10.967032 6 2 1.100
2481 26 -7.267160 -3.503492 3.425905 6 2 1.100
2482 26 5.020831 -0.999208 -7.108809 6 2 1.100
2483 26 9.326694 5.890463 7.445958 6 2 1.100
2484 26 -8.324868 12.763861 -9.452231 6 2 1.100
2485 26 8.292433 6.364060 8.670797 6 2 1.100
2486 26 -10.786502 9.846795 2.380092 6 2 1.100
2487 26 -9.059453 -5.893505 5.044360 6 2 1.100
2488 26 -2.874374 6.166417 7.787597 6 2 1.100
2489 26 2.042270 -3.505150 -8.237742 6 2 1.100
2490 26 -1.782011 -4.236656 -5.012916 6 2 1.100
2491 26 -8.821610 4.365499 6.471845 6 2 1.100
2492 26 -1.864433 -1.985425 -9.445345 6 2 1.100
2493 26 -2.967065 -4.056880 -10.756901 6 2 1.100
2494 26 -1.573004 -4.173272 -8.855586 6 2 1.100
2495 26 -1.491252 -5.320815 -6.959118 6 2 1.100
2496 26 -3.214957 15.433958 -5.655869 6 2 1.100
2497 26 0.784807 -3.071079 -5.740706 6 2 1.100
2498 26 -4.950608 16.091609 -5.568888 6 2 1.100
2499 26 -15.383163 0.166145 0.120327 6 2 1.100
2500 26 -11.182111 -0.369554 -7.089130 6 2 1.100
2501 26 -4.199475 7.668949 11.333247 6 2 1.100
2502 26 -10.885672 14.501403 -1.698953 6 2 1.100
2503 26 0.214365 11.244608 1.329863 6 2 1.100
2504 26 0.211159 12.277064 -8.540389 6 2 1.100
2505 26 2.192887 3.698396 4.334552 6 2 1.100
2506 26 0.200015 10.036741 5.057452 6 2 1.100
2507 26 -1.974457 12.522254 10.733930 6 2 1.100
2508 26 0.910657 8.743448 4.347169 6 2 1.100
2509 26 -5.889509 4.275140 6.580184 6 2 1.100
2510 26 -4.642692 15.661639 2.528583 6 2 1.100
2511 26 1.214675 16.633365 -0.271943 6 2 1.100
2512 26 -4.158478 -3.639249 10.834304 6 2 1.100
2513 26 -10.663532 -2.461936 -0.880439 6 2 1.100
2514 26 -7.626056 10.106188 10.368182 6 2 1.100
2515 26 -8.010571 -4.817733 7.200074 6 2 1.100
2516 26 6.749060 -3.477145 3.232436 6 2 1.100
2517 26 -2.597748 7.548705 8.633944 6 2 1.100
2518 26 3.037064 7.943133 6.263703 6 2 1.100
2519 26 4.294959 4.972623 4.927358 6 2 1.100
2520 26 -1.809625 7.604758 3.085515 6 2 1.100
2521 26 -0.598970 15.755274 -6.328951 6 2 1.100
2522 26 -5.086795 9.030241 9.397288 6 2 1.100
2523 26 -6.530702 7.582155 10.667324 6 2 1.100
2524 26 -14.297704 0.011680 -3.731598 6 2 1.100
2525 26 -16.759668 0.145858 -3.790000 6 2 1.100
2526 26 -15.498818 0.975697 -7.106767 6 2 1.100
2527 26 -16.596520 1.837034 -4.246313 6 2 1.100
2528 26 -4.789677 -5.420499 10.187040 6 2 1.100
2529 26 -1.915245 9.965608 -4.239284 6 2 1.100
2530 26 -1.852096 12.033417 -4.045898 6 2 1.100
2531 26 -15.423375 1.098890 -3.170505 6 2 1.100
2532 26 -16.002257 1.763899 -5.798462 6 2 1.100
2533 26 -15.770710 -1.341241 -4.282357 6 2 1.100
2534 26 -13.716847 -0.331849 -5.657482 6 2 1.100
2535 26 -16.101974 -0.522847 -2.622196 6 2 1.100
2536 26 -14.297648 0.946805 -6.024494 6 2 1.100
2537 26 -14.137516 0.633041 -7.735150 6 2 1.100
2538 26 -16.405616 0.071602 -5.393066 6 2 1.100
2539 26 -5.262870 10.124057 7.282622 6 2 1.100
2540 26 -4.921526 17.499197 -3.057060 6 2 1.100
2541 26 0.063918 -1.390130 -6.559449 6 2 1.100
2542 26 -2.497419 -4.034352 -6.292399 6 2 1.100
2543 26 -5.813023 -5.506264 6.226018 6 2 1.100
2544 26 -2.331480 -8.267203 3.480247 6 2 1.100
2545 26 -2.565120 -7.615489 6.793545 6 2 1.100
2546 26 -5.072620 -6.462348 6.861188 6 2 1.100
2547 26 1.163727 0.954232 11.311925 6 2 1.100
2548 26 2.914718 3.931390 13.422168 6 2 1.100
2549 26 6.113379 5.124404 -9.254577 6 2 1.100
2550 26 1.667035 14.050421 9.273324 6 2 1.100
2551 26 -13.690276 8.381007 5.541269 6 2 1.100
2552 26 -11.541351 11.248558 5.566520 6 2 1.100
2553 26 1.659844 12.987107 -3.255217 6 2 1.100
2554 26 8.291169 -2.461826 3.092765 6 2 1.100
2555 26 -12.402498 11.178440 3.720144 6 2 1.100
2556 26 -13.575398 12.266618 3.172909 6 2 1.100
2557 26 -14.919005 8.985756 5.891121 6 2 1.100
2558 26 -2.336489 -8.094515 -4.021828 6 2 1.100
2559 26 5.477520 -3.091073 0.796562 6 2 1.100
2560 26 -0.495708 -4.521876 -3.665994 6 2 1.100
2561 26 -5.178095 11.930632 -1.007546 6 2 1.100
2562 26 1.059158 13.033485 10.469576 6 2 1.100
2563 26 -0.279141 12.251487 9.645306 6 2 1.100
2564 26 -14.345744 11.271953 4.329588 6 2 1.100
2565 26 6.005233 -5.354923 3.665444 6 2 1.100
2566 26 -9.839786 9.064074 4.283181 6 2 1.100
2567 26 -12.651740 12.442371 4.455674 6 2 1.100
2568 26 -13.722192 10.965358 2.508238 6 2 1.100
2569 26 -15.151907 9.457444 4.415255 6 2 1.100
2570 26 -12.659347 7.903172 -1.335805 6 2 1.100
2571 26 -12.719031 8.986750 -8.129646 6 2 1.100
2572 26 -9.360288 2.555853 -3.866275 6 2 1.100
2573 26 -2.183501 15.247939 8.913760 6 2 1.100
2574 26 8.952474 8.326678 5.458392 6 2 1.100
2575 26 -12.672706 8.895261 4.728407 6 2 1.100
2576 26 -0.245588 10.781856 3.717620 6 2 1.100
2577 26 0.219703 -8.007736 -4.962122 6 2 1.100
2578 26 1.146829 12.633875 -10.504490 6 2 1.100
2579 26 2.935759 13.019481 -9.670499 6 2 1.100
2580 26 1.336568 13.755069 -9.524072 6 2 1.100
2581 26 1.917471 11.659915 -9.542915 6 2 1.100
2582 26 3.149024 11.498807 -10.453588 6 2 1.100
2583 26 3.139082 12.515937 -7.694699 6 2 1.100
2584 26 2.402554 14.153016 -7.112881 6 2 1.100
2585 26 2.945844 10.914353 -8.331355 6 2 1.100
2586 26 -6.452419 4.689973 4.233076 6 2 1.100
2587 26 -2.624479 0.798866 7.115803 6 2 1.100
2588 26 -11.152280 4.175968 2.407570 6 2 1.100
2589 26 -3.823076 -0.395512 7.666564 6 2 1.100
2590 26 -0.871768 13.781578 0.531459 6 2 1.100
2591 26 -1.834851 6.262465 11.902721 6 2 1.100
2592 26 -4.303560 16.948888 -4.430495 6 2 1.100
2593 26 -5.061466 12.065709 -8.835940 6 2 1.100
2594 26 -8.045175 13.146707 -8.116476 6 2 1.100
2595 26 1.612842 2.553519 10.898492 6 2 1.100
2596 26 -0.130681 7.947973 11.999318 6 2 1.100
2597 26 2.589982 -2.447716 -2.357030 6 2 1.100
2598 26 1.191239 -2.788184 -1.670800 6 2 1.100
2599 26 -5.351646 5.501681 5.715979 6 2 1.100
2600 26 -2.090055 15.627280 0.840464 6 2 1.100
2601 26 -9.733251 -7.019473 7.947440 6 2 1.100
2602 26 -0.490006 10.758542 -0.135765 6 2 1.100
2603 26 -6.996197 10.444242 -9.202621 6 2 1.100
2604 26 6.090663 3.056960 11.462844 6 2 1.100
2605 26 0.556342 15.567433 -5.363205 6 2 1.100
2606 26 -3.111631 3.992818 -1.727174 6 2 1.100
2607 26 -10.577195 0.913874 12.561880 6 2 1.100
2608 26 -3.246435 7.461290 4.906179 6 2 1.100
2609 26 3.744686 14.278194 7.344498 6 2 1.100
2610 26 -4.516145 10.657059 2.469098 6 2 1.100
2611 26 -3.606750 5.377332 12.199305 6 2 1.100
2612 26 5.682415 3.016463 -11.575641 6 2 1.100
2613 26 -5.005041 -1.037098 1.537701 6 2 1.100
2614 26 -10.122103 6.545388 5.773697 6 2 1.100
2615 26 -13.051263 -2.125192 -5.224213 6 2 1.100
2616 26 -9.479829 -4.121906 1.079905 6 2 1.100
2617 26 3.167642 5.337898 12.982117 6 2 1.100
2618 26 -8.755738 0.454819 -8.557537 6 2 1.100
2619 26 0.240011 3.957298 -3.492137 6 2 1.100
2620 26 -7.062269 8.220166 4.636085 6 2 1.100
2621 26 0.435640 -2.877902 0.144447 6 2 1.100
2622 26 1.500286 14.483459 -8.313141 6 2 1.100
2623 26 -0.012412 7.191278 9.652562 6 2 1.100
2624 26 -6.381956 2.444667 12.062957 6 2 1.100
2625 26 -3.270226 17.873769 1.311185 6 2 1.100
2626 26 1.861560 9.504515 12.599600 6 2 1.100
2627 26 -8.443160 7.638348 9.269637 6 2 1.100
2628 26 3.326436 13.994128 -8.282923 6 2 1.100
2629 26 -0.810562 11.439322 -5.182927 6 2 1.100
2630 26 -0.171225 11.590674 -3.646771 6 2 1.100
2631 26 -3.077673 10.472779 -3.250965 6 2 1.100
2632 26 -8.127733 16.719583 2.676170 6 2 1.100
2633 26 -8.863829 9.201505 7.186422 6 2 1.100
2634 26 5.402831 10.825508 10.020794 6 2 1.100
2635 26 6.164699 7.702289 10.213274 6 2 1.100
2636 26 3.223607 11.604236 8.837711 6 2 1.100
2637 26 2.300429 10.086131 7.200722 6 2 1.100
2638 26 2.635357 -7.393443 -4.888584 6 2 1.100
2639 26 -10.695615 13.533901 6.881810 6 2 1.100
2640 26 -3.765623 14.839963 -8.931885 6 2 1.100
2641 26 -9.301710 6.002733 10.877900 6 2 1.100
2642 26 1.958627 -4.552326 8.275950 6 2 1.100
2643 26 2.615419 -3.581669 7.280068 6 2 1.100
2644 26 -2.506208 -4.206974 8.949418 6 2 1.100
2645 26 -1.096137 -4.176913 10.586252 6 2 1.100
2646 26 -5.848600 14.517084 -5.645843 6 2 1.100
2647 26 1.662625 -5.242053 11.267387 6 2 1.100
2648 26 -0.725590 -5.153120 9.380589 6 2 1.100
2649 26 0.277553 -4.064777 7.599560 6 2 1.100
2650 26 0.071055 -0.952560 10.760304 6 2 1.100
2651 26 3.072486 -3.030448 8.752488 6 2 1.100
2652 26 2.957594 -2.448945 11.317000 6 2 1.100
2653 26 -0.530592 -6.732383 7.835136 6 2 1.100
2654 26 1.211703 -2.801822 6.481075 6 2 1.100
2655 26 1.107046 -7.175259 8.076456 6 2 1.100
2656 26 -0.124703 -7.167798 9.284532 6 2 1.100
2657 26 -0.842160 -1.393449 8.922003 6 2 1.100
2658 26 2.973977 -1.641604 9.862185 6 2 1.100
2659 26 -1.924629 -3.949171 12.110364 6 2 1.100
2660 26 1.679238 -5.643536 -8.416269 6 2 1.100
2661 26 -2.678537 13.917860 -4.136029 6 2 1.100
2662 26 0.618931 -5.565316 8.572314 6 2 1.100
2663 26 1.608865 -1.191518 10.557697 6 2 1.100
2664 26 -5.994955 16.830578 -4.556204 6 2 1.100
2665 26 0.451561 -4.330796 10.830859 6 2 1.100
2666 26 -0.123164 -6.915490 -8.125168 6 2 1.100
2667 26 1.757007 -4.488465 -9.576146 6 2 1.100
2668 26 0.672059 -1.240729 9.086048 6 2 1.100
2669 26 -1.198365 -2.188455 7.430525 6 2 1.100
2670 26 1.929118 -4.767642 9.810930 6 2 1.100
2671 26 1.739490 -1.903240 12.269004 6 2 1.100
2672 26 0.502029 -5.858630 -9.548969 6 2 1.100
2673 26 -6.953438 14.996888 -2.828358 6 2 1.100
2674 26 -3.297262 15.951009 -0.917507 6 2 1.100
2675 26 -7.738299 16.277469 -1.267404 6 2 1.100
2676 26 -1.707694 16.608840 -3.408075 6 2 1.100
2677 26 -7.668663 13.525449 -3.688849 6 2 1.100
2678 26 4.032117 -3.003146 10.072492 6 2 1.100
2679 26 3.289771 -5.549759 9.037899 6 2 1.100
2680 26 0.356891 -5.479040 -5.685774 6 2 1.100
2681 26 -0.472647 -3.162426 12.757310 6 2 1.100
2682 26 -0.969641 11.055350 12.349029 6 2 1.100
2683 26 -3.600654 13.015345 -0.760934 6 2 1.100
2684 26 7.186041 -5.352910 2.442546 6 2 1.100
2685 26 0.772796 -2.663151 11.069356 6 2 1.100
2686 26 0.425704 -1.654464 7.328301 6 2 1.100
2687 26 1.017521 -3.522078 12.439557 6 2 1.100
2688 26 2.081261 -1.525837 8.524502 6 2 1.100
2689 26 1.853772 -2.979896 9.864326 6 2 1.100
2690 26 1.205108 -4.185002 -3.738034 6 2 1.100
2691 26 -0.467758 -2.902325 6.256936 6 2 1.100
2692 26 4.191911 -4.237840 8.594853 6 2 1.100
2693 26 1.085291 -6.373589 -6.958860 6 2 1.100
2694 26 -3.240218 -2.651651 -9.713455 6 2 1.100
2695 26 -1.014800 -2.744027 -5.518030 6 2 1.100
2696 26 -0.977970 -6.016743 -9.043401 6 2 1.100
2697 26 -0.974783 -0.940454 -7.812238 6 2 1.100
2698 26 -0.567958 -6.669378 -6.508999 6 2 1.100
2699 26 -10.054896 0.809465 -7.593573 6 2 1.100
2700 26 -1.502776 -1.482032 10.479076 6 2 1.100
2701 26 3.380688 -4.396833 10.267833 6 2 1.100
2702 26 0.437538 -4.292515 6.036403 6 2 1.100
2703 26 1.774045 -6.436553 9.539715 6 2 1.100
2704 26 -1.018829 -6.390843 10.618710 6 2 1.100
2705 26 0.479085 -6.106261 10.550460 6 2 1.100
2706 26 0.864936 -6.078547 6.782676 6 2 1.100
2707 26 -0.340809 -2.551549 10.035432 6 2 1.100
2708 26 1.200684 -2.767939 8.169103 6 2 1.100
2709 26 -1.840566 -5.423456 11.514986 6 2 1.100
2710 26 2.442506 -6.255162 7.888701 6 2 1.100
2711 26 -8.787804 17.020924 1.006247 6 2 1.100
2712 26 8.115936 -4.061450 3.152306 6 2 1.100
2713 26 -5.139294 5.393961 11.545567 6 2 1.100
2714 26 -1.829850 -6.768152 9.323710 6 2 1.100
2715 26 -2.545462 -5.321307 10.137184 6 2 1.100
2716 26 -2.169809 -2.471966 8.899708 6 2 1.100
2717 26 3.607685 -5.044221 7.319579 6 2 1.100
2718 26 0.129148 -4.137677 -8.841955 6 2 1.100
2719 26 -2.234215 -3.280630 10.416521 6 2 1.100
2720 26 -1.726247 -5.488796 8.303088 6 2 1.100
2721 26 -2.494046 -5.522922 -10.264890 6 2 1.100
2722 26 -0.256866 -4.862977 12.069336 6 2 1.100
2723 26 -1.628553 -3.904326 7.434006 6 2 1.100
2724 26 0.906049 -1.289183 -8.342406 6 2 1.100
2725 26 -2.542945 -5.170800 -7.908552 6 2 1.100
2726 26 -1.234752 -2.499810 11.648968 6 2 1.100
2727 26 1.143302 -2.794093 -9.290765 6 2 1.100
2728 26 -0.537845 -5.257688 6.987622 6 2 1.100
2729 26 0.215101 -1.646395 12.354521 6 2 1.100
2730 26 2.342826 -3.786080 11.519348 6 2 1.100
2731 26 -0.826224 -3.268202 8.611223 6 2 1.100
2732 26 2.686417 2.479066 -0.925104 6 2 1.100
2733 26 5.461261 3.313649 7.702524 6 2 1.100
2734 26 9.936618 4.676308 4.420699 6 2 1.100
2735 26 -12.258935 7.749400 7.210522 6 2 1.100
2736 26 3.090947 13.177344 5.965765 6 2 1.100
2737 26 2.966522 -1.464279 -6.454234 6 2 1.100
2738 26 4.905579 0.700121 -7.395045 6 2 1.100
2739 26 4.537333 -1.535886 -5.788274 6 2 1.100
2740 26 2.212186 0.201322 -7.169533 6 2 1.100
2741 26 7.601491 4.869401 -9.583638 6 2 1.100
2742 26 -2.975766 4.458187 14.691872 6 2 1.100
2743 26 -4.377061 5.464614 14.899098 6 2 1.100
2744 26 -6.298151 10.632558 12.646541 6 2 1.100
2745 26 -7.798072 10.192492 11.948590 6 2 1.100
2746 26 -4.919887 11.570863 11.788258 6 2 1.100
2747 26 3.841358 2.074226 -12.948109 6 2 1.100
2748 26 -4.237576 -8.329458 8.622024 6 2 1.100
2749 26 -1.158726 13.644087 5.544933 6 2 1.100
2750 26 -2.504626 13.319539 4.891182 6 2 1.100
2751 26 -5.835812 -1.174847 9.020896 6 2 1.100
2752 26 3.097182 1.783944 2.489445 6 2 1.100
2753 26 -5.013285 0.547971 8.057146 6 2 1.100
2754 26 -6.609948 13.670749 0.915760 6 2 1.100
2755 26 1.421193 -8.959124 0.785674 6 2 1.100
2756 26 5.055546 7.439079 -10.348104 6 2 1.100
2757 26 -5.051851 2.451597 6.771603 6 2 1.100
2758 26 -2.783605 -0.505835 6.042990 6 2 1.100
2759 26 -11.835065 5.415115 9.414966 6 2 1.100
2760 26 -9.870844 8.275008 11.023948 6 2 1.100
2761 26 -4.380348 3.831573 4.014890 6 2 1.100
2762 26 4.315004 12.574607 -8.652834 6 2 1.100
2763 26 -6.731840 17.302611 2.344550 6 2 1.100
2764 26 7.901932 -4.261045 1.241462 6 2 1.100
2765 26 6.928819 -2.343336 1.251940 6 2 1.100
2766 26 4.507344 -5.227236 -1.105636 6 2 1.100
2767 26 7.184894 -5.173099 -1.761806 6 2 1.100
2768 26 -1.648121 16.561895 4.604887 6 2 1.100
2769 26 -3.248167 5.884639 13.735016 6 2 1.100
2770 26 -6.162417 12.817723 -3.961796 6 2 1.100
2771 26 -3.950215 7.012971 14.114294 6 2 1.100
2772 26 3.216857 15.740551 -0.601565 6 2 1.100
2773 26 5.211278 2.177923 -9.352120 6 2 1.100
2774 26 -11.058896 9.915226 3.908023 6 2 1.100
2775 26 3.415186 12.376228 -6.045962 6 2 1.100
2776 26 -4.780177 16.645412 -0.269417 6 2 1.100
2777 26 -3.070591 -4.267398 -9.257152 6 2 1.100
2778 26 -11.189325 2.047312 11.486164 6 2 1.100
2779 26 -10.859758 12.247662 0.929931 6 2 1.100
2780 26 -4.327669 0.498440 6.486072 6 2 1.100
2781 26 -10.839207 9.733779 8.630060 6 2 1.100
2782 26 -0.911798 7.396979 6.608394 6 2 1.100
2783 26 -9.001377 11.125459 4.082754 6 2 1.100
2784 26 0.743280 6.774951 8.262268 6 2 1.100
2785 26 4.758079 4.849271 10.658748 6 2 1.100
2786 26 -2.051756 0.742182 5.573443 6 2 1.100
2787 26 -4.009148 13.205445 -7.421560 6 2 1.100
2788 26 3.051327 -8.257264 -0.919450 6 2 1.100
2789 26 -8.438427 0.163375 10.396911 6 2 1.100
2790 26 -7.209991 1.268612 13.017755 6 2 1.100
2791 26 -9.697209 2.157857 12.010183 6 2 1.100
2792 26 -10.126710 4.095479 12.160268 6 2 1.100
2793 26 1.423204 8.071504 7.170530 6 2 1.100
2794 26 -0.516252 0.678663 3.677313 6 2 1.100
2795 26 1.639859 -7.654010 1.410737 6 2 1.100
2796 26 -5.948895 1.033394 5.952958 6 2 1.100
2797 26 1.163856 16.650583 3.431354 6 2 1.100
2798 26 1.202805 13.603373 2.859700 6 2 1.100
2799 26 -4.160913 -0.182715 -8.944790 6 2 1.100
2800 26 -10.129373 0.710779 -0.124975 6 2 1.100
2801 26 -11.123320 0.609097 -1.425360 6 2 1.100
2802 26 -3.271691 11.278693 9.143902 6 2 1.100
2803 26 -4.002829 12.661005 5.151505 6 2 1.100
2804 26 -4.913302 -5.163615 3.507147 6 2 1.100
2805 26 -4.113875 -7.545190 6.303055 6 2 1.100
2806 26 -15.436943 -0.628732 -6.493922 6 2 1.100
2807 26 -5.440920 -8.307006 3.873985 6 2 1.100
2808 26 -2.254173 -7.689533 5.275416 6 2 1.100
2809 26 -2.612521 -5.325780 2.812773 6 2 1.100
2810 26 -5.611632 -6.305274 2.057788 6 2 1.100
2811 26 -5.380455 -6.659712 3.628560 6 2 1.100
2812 26 -3.401572 -4.317827 3.567288 6 2 1.100
2813 26 -2.272112 -6.892751 2.599987 6 2 1.100
2814 26 -5.893102 -6.583121 5.093356 6 2 1.100
2815 26 -2.886753 11.039159 -5.069798 6 2 1.100
2816 26 -1.665688 12.472286 -5.750998 6 2 1.100
2817 26 -3.923591 -7.655578 4.831016 6 2 1.100
2818 26 -4.211673 -5.116053 2.207117 6 2 1.100
2819 26 -0.561280 13.085398 -4.114584 6 2 1.100
2820 26 6.000579 -2.802706 -6.979514 6 2 1.100
2821 26 1.439782 -5.646306 -1.561726 6 2 1.100
2822 26 -0.373053 -5.160578 -1.241999 6 2 1.100
2823 26 0.896827 -3.902666 -7.122903 6 2 1.100
2824 26 -4.789070 -9.229185 4.995979 6 2 1.100
2825 26 -3.473663 -6.286209 7.081387 6 2 1.100
2826 26 1.520481 -2.415632 -6.974557 6 2 1.100
2827 26 4.298868 -3.709843 -6.846764 6 2 1.100
2828 26 -4.212752 -4.816340 6.721626 6 2 1.100
2829 26 -2.963019 -5.274218 5.815191 6 2 1.100
2830 26 -4.081612 12.778809 6.563983 6 2 1.100
2831 26 0.021125 -4.041794 1.599550 6 2 1.100
2832 26 4.910528 -4.822930 -7.960817 6 2 1.100
2833 26 -1.348517 -3.510475 -10.142425 6 2 1.100
2834 26 0.012942 -5.279923 -7.661889 6 2 1.100
2835 26 0.267339 -4.334617 -10.308454 6 2 1.100
2836 26 0.043080 3.741838 4.133600 6 2 1.100
2837 26 -1.002303 -5.307073 -10.499501 6 2 1.100
2838 26 -1.361533 -6.957545 4.305141 6 2 1.100
2839 26 -4.673842 -5.456871 5.081010 6 2 1.100
2840 26 -3.728273 -9.021936 3.818300 6 2 1.100
2841 26 -2.430922 -3.982938 4.903948 6 2 1.100
2842 26 -4.100079 11.662784 7.874094 6 2 1.100
2843 26 4.252402 4.583477 6.391250 6 2 1.100
2844 26 -16.749437 1.292125 -2.440683 6 2 1.100
2845 26 1.182885 -4.287405 0.651839 6 2 1.100
2846 26 6.311311 -3.053417 -8.604823 6 2 1.100
2847 26 -5.813854 -8.095909 5.537450 6 2 1.100
2848 26 -3.357364 -8.924314 5.820858 6 2 1.100
2849 26 -4.074067 -3.966252 5.073016 6 2 1.100
2850 26 -4.052240 -6.560785 1.850137 6 2 1.100
2851 26 -5.039111 -7.975507 2.481626 6 2 1.100
2852 26 -1.894940 -6.096397 5.322141 6 2 1.100
2853 26 -1.577242 -2.646493 -6.895286 6 2 1.100
2854 26 -0.436428 -2.097579 -9.137850 6 2 1.100
2855 26 -1.899555 4.285520 0.136198 6 3 2.400
2856 26 -3.115759 3.775022 0.089452 6 4 2.800
