2856
Lupine sphere-grid knowledge graph
Co      9.832742   -15.009293    13.925884
Co     18.110153   -12.488944     6.602714
Co     15.232919   -13.246290    14.309637
Co     17.502094   -11.930485    15.337375
Co     13.044116    -9.775632    10.468000
Co     15.966734   -10.993419     9.211007
Co     18.719035    -9.957367    13.997815
Co     13.859075   -13.815294    13.571209
Co     15.863552   -10.136761    13.080674
Co     16.546151    -7.515321    11.067302
Co     12.281939   -10.376381    15.943363
Co     18.821653   -12.522840    12.920800
Co     13.880615   -14.466847    12.115802
Co     13.397577   -12.136544    16.424953
Co     15.111247   -12.967109     9.810644
Co     14.026357   -11.174920    13.563579
Co     17.267344   -14.927334    12.158017
Co     16.990352   -14.516202    13.574892
Co     16.559137   -13.366262    10.965256
Co     14.332030    -9.626210    14.606602
Co     17.491137   -11.027443     8.396602
Co     12.998334   -13.753884     9.324503
Co     15.869888    -7.122201    12.600217
Co     18.722231    -8.977991    10.824468
Co     18.468440   -13.765095    12.148158
Co     13.411466   -10.954784    15.049072
Co     12.413954   -11.913062    13.681878
Co     14.258180   -10.031331    11.675444
Co     15.333977   -13.530561    12.731861
Co     12.801708    -8.687736    14.759475
Co     17.585444   -10.053758    15.481859
Co     15.554309   -14.950203    14.292444
Co     15.809795    -7.269253    14.390978
Co     14.664003   -10.805008    10.165762
Co     18.598774   -11.580752    14.229945
Co     17.158396   -10.685852    14.051095
Co     14.251830   -13.458655    10.978840
Co     17.768186   -12.985625     8.752611
Co     11.720635    -9.871276    14.451892
Co     16.213595   -12.047309     7.957925
Co     15.350642    -9.617577    16.381881
Co     16.346784   -10.933000    16.256892
Co     17.305159    -9.344061    12.939987
Co     14.075722   -14.809624    14.897475
Co     13.072317   -12.914806    12.627075
Co     16.026429   -11.690968    10.865772
Co     12.676029   -13.180081    11.164459
Co     15.463453   -14.339253    11.337594
Co     17.190885    -7.456190    13.339371
Co     14.343887    -7.514983    12.743063
Co     12.882849   -10.085728    13.374949
Co     19.202036   -11.034265    12.605198
Co     13.857955   -15.188559    10.097930
Co     17.319902   -10.649261    10.173017
Co     19.321185   -12.221575    11.315298
Co     18.562795    -8.421098    13.124183
Co     15.819722   -10.190805    14.871796
Co     14.709495   -12.835127     8.149161
Co     14.823850    -8.175227    15.569618
Co     11.341727   -11.792763    11.677100
Co     12.801813   -15.393060    13.240444
Co     11.088568   -11.411431    14.510736
Co     13.636185   -12.592375    14.594273
Co     14.747819   -11.198489     8.181162
Co     13.279355   -15.797104    11.537704
Co     14.068728    -7.696941    14.259519
Co     14.944295   -11.863379    16.429775
Co     13.825341   -11.987024    10.665888
Co     14.708278   -13.572238    15.896865
Co     12.703435    -8.521952    13.138320
Co     16.517895   -15.463266    10.789673
Co     17.842429    -7.912748    11.736118
Co     14.905694   -15.925087    11.294631
Co     17.980077   -13.289412    14.066890
Co     16.780635    -9.549052     8.692039
Co     12.470057   -14.474335    14.474717
Co     17.958709   -14.346580    10.730320
Co     12.130644    -9.808542    11.898508
Co     14.886456    -7.866247    11.147860
Co     16.930019   -13.060364    12.511630
Co     13.446668   -12.305837     8.934369
Co     11.925223   -14.841698    11.942988
Co     11.650780   -13.888221    13.138002
Co     11.969700   -12.012081    15.712121
Co     10.868569   -12.496081    13.081601
Co     15.918182    -9.809530    10.849153
Co     15.857371    -8.696705    13.899020
Co     17.027414   -14.425330     9.446603
Co     13.053368   -11.366808    12.041327
Co     16.032070   -13.806011     8.437498
Co     12.295174   -14.621211    10.412712
Co     18.636644   -13.102930    10.135557
Co     15.093931    -9.686821     8.750019
Co     16.708260   -12.475300     9.619194
Co     11.276120   -10.695753    12.941153
Co     19.132144    -9.613903    12.200918
Co     14.378055   -15.695367    13.260215
Co     15.154744   -11.614320    14.729820
Co     17.461582   -10.026481    11.557723
Co     16.533169   -12.252721    13.897051
Co     11.505274   -13.146050    14.641236
Co     15.451890   -15.099637     9.622413
Co     16.648235   -13.838118    15.012747
Co     13.419290    -8.547551    11.620321
Co     15.827210   -15.521297    12.675106
Co     13.532150    -9.148655    16.057240
Co     13.368831   -10.763638     9.167607
Co     11.996643   -12.530182     9.891473
Co     15.974499    -8.782405    12.033991
Co     18.451322    -9.851699     9.373010
Co     17.627576    -8.581352    14.572644
Co     11.145438   -13.410709    11.470270
Co     12.946805   -13.561349    15.715113
Co     16.176568   -12.659506    15.890354
Co     14.062956   -10.568243    16.593198
Co     17.426278    -8.588129    10.044082
Co     19.225564   -10.657896    10.804267
Co     15.900950    -8.465575     9.762086
Co     12.185709   -11.089298    10.541552
Co     17.737590   -12.010637    11.154264
Co     16.449654    -8.616923    15.582631
Co     18.738663   -11.587544     9.481249
Co     14.366012   -14.292050     8.823053
Co     14.410457    -9.156075    13.028021
Co     17.398654   -11.346111    12.556119
Co     14.351892    -8.978439    10.041277
Co     15.263998   -11.477291    12.463142
Co     15.121815   -11.710690    12.238485
Cr     22.912797    -4.229774    -2.108537
Cr     24.217294    -0.479254    -3.310096
Cr     23.995053    -2.016182    -3.078700
Cr     25.463050    -0.026503    -4.303456
Cr     25.561671    -1.338166    -3.046829
Cr     23.542244    -0.397446    -4.672561
Cr     24.591981    -1.733933    -4.558736
Cr     20.605488     0.333467    -1.855324
Cr     20.862880     1.166483    -7.659149
Cr     20.007996     3.408576    -0.771516
Cr     19.923087     3.102050    -3.296281
Cr     19.998553     6.978605    -2.780355
Cr     24.473719     5.206039    -5.022862
Cr     26.000121    -0.950142    -0.898776
Cr     24.221719    -0.207797     2.902828
Cr     23.369232     6.252126     1.127236
Cr     24.294007     3.736376    -4.460803
Cr     18.681266     3.075878    -1.111240
Cr     20.792436     3.396981     0.677213
Cr     23.091548     1.642493     4.717014
Cr     23.089589     6.315847    -5.303097
Cr     25.975507     2.820999    -3.601421
Cr     22.464207     1.743289    -8.139551
Cr     24.606293     2.517259     3.918270
Cr     22.542913     7.447520    -2.157319
Cr     22.581066     0.273453     3.576156
Cr     19.014669     3.910845    -4.489848
Cr     20.062322     1.627502    -1.266637
Cr     21.360311     6.294763    -1.963634
Cr     24.660029     1.201419    -1.803898
Cr     21.133528     3.155597     2.779297
Cr     25.061456     2.699705    -2.309874
Cr     21.622201     6.890334     3.357793
Cr     20.483799     5.487620     3.341547
Cr     23.636367     4.892685    -2.389337
Cr     23.807928     6.539139    -3.103106
Cr     21.612646    -2.095991     3.543683
Cr     22.038895     5.645943    -6.252366
Cr     21.007311     7.910892    -1.546131
Cr     23.109615     3.593851    -7.079150
Cr     22.006712     3.382999    -4.519777
Cr     23.243018     3.821785     2.504349
Cr     20.561230    -1.934563    -0.763043
Cr     20.069942    -3.664157    -1.048998
Cr     21.278652    -3.464240     0.266070
Cr     19.306182    -1.346720    -0.126343
Cr     20.456251    -2.583468    -2.323913
Cr     21.736408    -2.610360    -1.247097
Cr     19.119544    -2.086419    -1.606751
Cr     21.281211     0.663416     2.690112
Cr     21.654076     0.745274    -0.088157
Cr     20.092519    -2.762233    -4.980031
Cr     25.865858     4.135864     0.959857
Cr     24.729364     1.637446    -0.160583
Cr     19.585047     2.690823    -5.065933
Cr     23.792315     3.884569     4.132119
Cr     19.393448    -0.848641     2.748830
Cr     20.863570    -0.925477     4.428475
Cr     24.716533     4.887824     3.037974
Cr     20.046455     2.965275     4.024694
Cr     22.042814    -0.157281    -2.695911
Cr     20.988018     3.926507    -6.051373
Cr     23.760090     5.175971    -0.712685
Cr     23.828652    -1.741878     2.916065
Cr     23.477653     0.214469    -6.939277
Cr     21.156293     1.497128    -3.352413
Cr     19.065416    -1.077640    -5.116866
Cr     24.506085     3.560415    -1.027769
Cr     21.755609    -2.010723    -6.116778
Cr     22.431440     2.102029     3.101248
Cr     21.795392     5.935926     0.144460
Cr     18.704858     2.288250    -3.479245
Cr     20.684441     2.034221     1.348849
Cr     20.782645    -0.637573     2.833653
Cr     20.380188     0.513413     4.375389
Cr     22.078321     5.366073     3.505664
Cr     22.678894    -0.588862    -0.443490
Cr     21.147623     7.746242     0.339512
Cr     20.094540     6.436838     0.644940
Cr     20.856694     5.078714     1.753835
Cr     24.279961     1.829459     2.216910
Cr     23.158451    -2.795042     2.074668
Cr     21.241289     7.840861     1.863344
Cr     21.739461     6.210156     1.618393
Cr     24.895260    -1.749984     1.032359
Cr     20.503390     6.496244    -5.238900
Cr     22.137650    -1.654736    -3.171802
Cr     24.569078     4.742268     1.419261
Cr     22.733793    -0.534124     2.217129
Cr     21.307994    -0.799109     1.305280
Cr     22.384526    -1.883035     1.468374
Cr     21.275584     6.521447    -4.075425
Cr     25.090185     6.016003    -0.422963
Cr     19.804544     0.900484    -4.144907
Cr     26.524596     2.704242    -1.931640
Cr     20.088112     6.593157     2.237389
Cr     23.603414     2.382631    -5.748800
Cr     23.318921     1.818801    -3.050574
Cr     24.335652    -0.038613     0.739110
Cr     24.594749     3.256454     2.168603
Cr     20.006629     6.158518    -1.461385
Cr     25.669638     1.696376     2.778412
Cr     25.968698     2.576255     1.237113
Cr     24.711942     3.413148    -5.987146
Cr     25.811729     3.601427     2.833126
Cr     22.902463     4.075400    -5.374439
Cr     20.091731     1.113363     0.274022
Cr     19.184782     4.602541    -0.393073
Cr     24.515297    -0.507546    -0.951273
Cr     22.928992     7.602795     1.891962
Cr     23.153651     6.272680     2.828503
Cr     19.757315    -0.227879    -6.439339
Cr     20.972824     5.053172    -3.642698
Cr     23.107479     0.714269    -1.310431
Cr     22.612110     1.755462     0.914994
Cr     23.447561     2.982959     0.211059
Cr     22.840480     3.310593    -2.138792
Cr     21.384432     3.557616    -1.741208
Cr     22.198013     3.914265    -0.250405
Cr     19.257173     4.439394    -2.902071
Cr     24.295125     1.550891    -4.211298
Cr     25.673860    -0.381126     1.471075
Cr     23.207280    -2.152726    -0.250652
Cr     19.820660    -2.796805     0.460464
Cr     22.763039     7.649182     0.262736
Cr     24.943935    -2.166668    -0.926442
Cr     21.856711     2.345672     4.872140
Cr     21.204876     3.876386     4.500371
Cr     20.450718    -2.367391     2.455100
Cr     21.489363     7.901368    -3.151928
Cr     23.243170    -0.778231     4.205055
Cr     19.380682    -0.392539    -2.715024
Cr     25.022064     5.529276    -2.914177
Cr     21.540416     4.623074    -7.173056
Cr     19.875689     5.260200    -4.983394
Cr     19.428609     3.788363     1.551527
Cr     21.379292    -0.646543    -4.028899
Cr     24.049263     6.839675    -1.164109
Cr     25.825488     4.421164    -1.424669
Cr     19.418719     1.974882     2.433582
Cr     21.384988     1.081531    -4.853484
Cr     22.742798     5.093063    -4.311439
Cr     26.252073     1.149019    -0.104075
Cr     18.906252     0.566733     0.925420
Cr     18.709342     0.840951    -1.399668
Cr     26.105031     0.728257    -2.377369
Cr     23.155698    -1.843157    -6.213579
Cr     19.080674     0.991341    -6.340993
Cr     20.739934    -3.809248    -4.457506
Cr     19.910793     2.220833    -7.701354
Cr     24.204595    -3.795199    -1.983807
Cr     21.618154     2.799744    -8.411447
Cr     22.982416    -3.944346    -3.538736
Cr     22.990239    -4.402975    -0.614490
Cr     21.601837    -4.616869    -2.383724
Cr     24.645948     0.429454    -6.396093
Cr     22.031295     2.628926    -6.038960
Cr     23.667226     4.976346    -6.535663
Cr     22.308256    -3.137480    -5.504333
Cr     19.895615    -0.514080    -7.677877
Cr     19.243155    -2.720461    -3.960650
Cr     21.700859    -1.602811    -7.366017
Cr     22.238909     0.616119    -7.471597
Cr     20.240177    -1.543022    -5.794697
Cr     22.361613     2.190658    -0.682705
Cr     22.235910     1.875289    -1.449306
Cu    -12.379283   -19.768655     3.373295
Cu    -11.962032   -21.574752    -1.347808
Cu    -14.344515   -21.721946     1.209893
Cu    -11.612851   -20.528984     1.335802
Cu    -15.419527   -22.381571     0.555209
Cu    -13.523315   -22.813610     0.715837
Cu    -12.324403   -18.255447    -1.459852
Cu    -16.833111   -18.011519     0.125729
Cu    -13.340879   -20.055634    -2.319971
Cu    -11.509024   -19.656152     4.272785
Cu    -13.334946   -21.147001     3.855401
Cu    -15.003499   -18.103029     3.375828
Cu    -12.251727   -18.517235     2.354083
Cu    -13.702596   -17.538240     2.819991
Cu    -15.985652   -19.474582     3.878633
Cu    -13.286057   -18.197158     1.354652
Cu    -15.443949   -20.194847     2.439032
Cu    -13.299063   -19.994873     1.312843
Cu    -12.977526   -18.620682    -3.838413
Cu    -14.599589   -19.477044    -2.231110
Cu    -14.884839   -18.590002     4.740303
Cu    -13.833907   -21.334326    -3.545469
Cu    -13.459418   -20.965978    -0.917190
Cu    -16.136559   -19.957077    -0.423608
Cu    -16.415008   -18.598265     1.490033
Cu    -17.096532   -17.801910     2.956606
Cu    -18.410573   -18.953650     0.471699
Cu    -15.198663   -17.964433    -0.585740
Cu    -17.704561   -16.627680     1.887365
Cu    -17.645760   -17.081479    -2.155100
Cu    -15.011846   -20.656094     4.085842
Cu    -11.557177   -22.066157     0.897943
Cu    -10.838558   -21.076849     2.326569
Cu    -15.327222   -17.478030     1.252153
Cu    -13.515722   -18.026609    -2.414928
Cu    -15.409208   -19.826334    -3.722774
Cu    -14.566467   -18.345670    -3.807758
Cu    -12.607409   -19.547908    -0.881509
Cu    -11.232716   -20.040413    -1.731496
Cu    -14.634532   -21.724262    -1.567614
Cu    -18.273118   -16.807456    -0.841984
Cu    -14.015804   -19.866250    -4.411993
Cu    -12.490759   -20.279182    -4.000039
Cu    -15.269704   -21.068468    -2.736403
Cu    -13.106288   -21.407732     2.447345
Cu    -10.942533   -19.233020     0.858072
Cu    -13.289845   -18.350371     4.069998
Cu    -13.778953   -19.779499     4.636540
Cu    -16.161587   -16.564298     2.258681
Cu    -10.514900   -20.823384     0.271768
Cu    -18.291666   -18.124593     1.925065
Cu    -13.177729   -22.121363    -2.258553
Cu    -15.377545   -16.778171    -1.670624
Cu    -11.819496   -21.152421    -2.908149
Cu    -11.781713   -19.143926    -2.880018
Cu    -18.402913   -18.501142    -1.096231
Cu    -16.010734   -16.172718     0.562555
Cu    -16.656433   -16.237746    -1.037500
Cu    -17.540644   -16.096534     0.430624
Cu    -17.799431   -20.191725    -0.095390
Cu    -16.321822   -17.525055    -2.749930
Cu    -17.243763   -20.033349    -1.555596
Cu    -16.738378   -20.322896     0.980355
Cu    -17.637435   -19.553309     2.064022
Cu    -14.564924   -16.742196    -0.010334
Cu    -17.490395   -18.761464    -2.517424
Cu    -16.431587   -18.510533    -1.357004
Cu    -18.681265   -17.368726     0.527331
Cu    -14.939093   -21.571351     2.789666
Cu    -14.004282   -19.643583     2.519162
Cu    -14.661767   -19.315005     0.204160
Ni     -3.282235   -24.373035     6.187626
Ni     -5.751858   -23.251535     5.804705
Ni     -2.820443   -23.889516     8.761435
Ni     -4.834793   -22.254826     5.960714
Ni     -5.385858   -22.703098    10.078922
Ni     -5.689149   -22.450895     8.563167
Ni     -4.123162   -21.096225     6.030468
Ni     -3.981660   -22.420769     9.429474
Ni     -1.147141   -22.190087     7.915366
Ni     -3.548761   -23.082368     5.537076
Ni     -0.968189   -21.454139     9.580276
Ni     -2.584380   -20.327210     9.719397
Ni     -2.638333   -20.531471     7.762072
Ni     -5.890949   -21.746443     6.797283
Ni     -4.883071   -21.073710    10.123254
Ni     -4.694386   -20.988795     8.585544
Ni     -0.609259   -23.406436     7.922134
Ni     -4.711568   -23.847161     8.571850
Ni     -3.764594   -23.689677    10.178429
Ni     -2.038843   -24.597097     6.594221
Ni     -4.477834   -24.785425     6.613646
Ni     -2.299788   -22.850997    10.098154
Ni     -3.886133   -23.475733     4.366752
Ni     -2.250922   -22.722112     5.288838
Ni     -3.484105   -21.729299    10.825499
Ni     -1.107328   -21.896301     6.653828
Ni     -2.236821   -21.401591     8.852929
Ni     -3.441886   -22.527995     7.831928
Zn      9.464666   -16.232151    -3.912402
Zn     13.488573   -17.321749    -4.445148
Zn      8.253425   -19.123769    -1.607264
Zn     11.215017   -21.646108    -0.569191
Zn      8.308865   -22.433345    -0.404395
Zn      3.212994   -21.462997    -4.786201
Zn      9.951558   -22.653568    -2.905822
Zn      6.872974   -16.323261    -6.976351
Zn      6.312230   -20.742889    -0.500909
Zn      3.345789   -22.032185    -3.043369
Zn      6.216245   -14.813203   -10.073598
Zn      8.998258   -17.183417    -6.231605
Zn      8.262331   -17.211351    -2.102353
Zn      5.057062   -19.351011    -0.753106
Zn     11.017908   -23.436157    -7.262269
Zn      2.609190   -22.937033    -3.958111
Zn     13.512530   -22.198843    -6.375276
Zn      8.894762   -19.587013     0.043661
Zn      3.639080   -19.818470    -4.845485
Zn     10.752806   -18.482247    -1.605812
Zn      3.686638   -18.554561    -3.561820
Zn      8.823451   -20.576779    -9.006675
Zn      5.584558   -23.630017    -7.127236
Zn      1.449634   -20.594191    -8.875705
Zn      4.950623   -20.830828    -4.736521
Zn      9.417290   -16.193064    -1.766352
Zn      8.935398   -13.890509    -8.986566
Zn      2.772679   -21.698746    -1.665389
Zn     14.079132   -16.450541    -9.103814
Zn      9.825979   -15.945964    -5.456922
Zn     11.577434   -21.681675    -6.198654
Zn      9.414841   -14.749425    -7.413567
Zn     10.391371   -21.118379    -9.844246
Zn     11.118497   -17.020204    -1.344850
Zn      7.277986   -16.259250    -2.003456
Zn     11.262315   -13.914368    -7.273281
Zn      3.727155   -20.405005    -1.106084
Zn      4.829875   -19.624511    -3.494345
Zn      4.557208   -22.223304    -4.148826
Zn     13.013779   -21.299993    -5.417761
Zn      3.549452   -19.170768    -2.028871
Zn      4.246564   -22.176977    -0.999527
Zn      4.359987   -20.960917    -2.779136
Zn      6.981132   -23.944410    -9.437552
Zn      7.172679   -15.652870    -9.365079
Zn     10.441402   -13.553119    -8.635766
Zn      5.796072   -21.542018    -1.914653
Zn      4.802034   -23.402919    -5.742070
Zn      8.424614   -21.204881    -6.493970
Zn      5.021436   -17.737501    -5.501594
Zn     11.084081   -18.524548   -10.237458
Zn      4.214977   -19.391582   -10.230014
Zn      7.566477   -19.222604     0.113840
Zn      5.354826   -23.360114    -1.956633
Zn      7.149661   -17.577442    -0.884527
Zn     12.248255   -19.401729    -1.367378
Zn      6.847795   -15.298414   -11.709339
Zn      4.985200   -18.531947    -2.206197
Zn      7.711074   -14.381067   -10.764604
Zn      8.780505   -17.260073    -0.547272
Zn      7.998394   -14.397610    -7.648572
Zn      2.430434   -19.509181    -3.823162
Zn      7.646832   -17.959162    -7.097097
Zn      6.519906   -19.013126    -4.859787
Zn     10.111393   -17.971360    -5.195441
Zn      7.258160   -18.357726    -3.428123
Zn      6.289655   -18.262534    -6.412385
Zn      8.033213   -15.690085    -5.383725
Zn      6.089207   -17.405097    -4.061342
Zn     12.394509   -23.189151    -6.680289
Zn      9.693916   -19.536477    -5.315419
Zn      7.753890   -20.222798    -5.085098
Zn     10.781929   -21.101597   -12.319769
Zn      5.770952   -22.418294    -0.587966
Zn      9.766714   -17.941341   -13.617032
Zn     12.443531   -21.324954    -3.141638
Zn     10.727126   -22.905393    -1.236467
Zn     11.670517   -19.039953   -11.669993
Zn      2.682258   -17.435936    -8.793295
Zn      8.207413   -22.303658    -2.163325
Zn      3.746399   -20.213212   -12.732286
Zn      5.208655   -19.406351    -8.383217
Zn      4.091239   -18.640019   -13.032091
Zn      2.650359   -17.616581   -10.481607
Zn     15.267434   -17.102117    -6.174989
Zn      1.790117   -20.458110   -10.724405
Zn      6.261487   -21.489408   -10.179383
Zn      3.935966   -19.795101    -7.538006
Zn     10.984530   -16.951433    -9.494859
Zn      3.479575   -18.744536    -9.060775
Zn     10.973672   -20.650568    -3.357918
Zn      2.963654   -23.772726    -7.450051
Zn     10.338606   -18.142666    -0.054479
Zn      5.654198   -23.049530    -8.579320
Zn      5.370817   -24.449471    -9.245149
Zn      4.972730   -22.469691   -10.917314
Zn      2.389883   -20.510343    -7.694932
Zn      8.291206   -17.349714    -9.642196
Zn     11.552965   -15.746574    -8.346406
Zn     12.423455   -19.705160    -9.078051
Zn     11.540158   -16.999124   -11.257828
Zn     11.305959   -18.438226    -8.571734
Zn     10.294293   -21.082553    -8.208109
Zn     10.958723   -15.484221   -12.273869
Zn     13.195039   -19.181326    -7.565948
Zn     12.968365   -21.535620    -9.642074
Zn      8.269705   -18.064659   -11.266602
Zn     13.782511   -17.050365   -10.982602
Zn      9.083372   -16.044521   -10.237587
Zn      9.950210   -16.780825   -11.214684
Zn      9.065283   -21.408602   -11.894242
Zn     11.893793   -21.577459    -8.633334
Zn     12.646770   -15.007510    -9.124578
Zn     13.538723   -20.225517   -10.426036
Zn     11.732977   -14.834758   -10.899778
Zn      9.615943   -15.209810   -11.609263
Zn     12.849808   -16.696635    -8.010836
Zn     12.711284   -18.248265   -10.381053
Zn      8.463048   -18.397558   -13.001532
Zn      9.547952   -16.310105   -13.068948
Zn     11.697485   -20.215709    -7.627862
Zn     13.508770   -20.700518    -8.153594
Zn     12.349372   -20.408797   -11.938429
Zn     10.311049   -20.228474   -11.228793
Zn      6.025957   -18.948589   -13.037617
Zn     10.603102   -21.003508    -1.856060
Zn     13.364555   -15.515746   -10.445506
Zn     10.196226   -19.625726    -9.431590
Zn      4.843265   -25.163896    -6.167006
Zn      4.845728   -19.259456   -11.779057
Zn      7.153387   -23.036161    -7.985486
Zn     11.035817   -23.266543    -5.038619
Zn      5.723913   -20.727561    -8.883330
Zn      6.714790   -19.845875    -6.332696
Zn      7.586770   -24.329892    -6.845784
Zn     10.179858   -15.082796    -3.337575
Zn      8.361839   -21.953036    -3.974413
Zn      9.305111   -21.035657    -2.861716
Zn      9.193970   -24.416256    -2.172245
Zn      9.416199   -22.825593    -5.113109
Zn     11.620974   -18.665137    -7.063498
Zn      8.863551   -21.774923   -10.124015
Zn     11.580235   -18.788430   -13.120625
Zn     12.383926   -16.520693    -9.873352
Zn     11.305095   -16.946089   -13.076305
Zn      9.601872   -18.016351   -10.062640
Zn      5.583725   -20.449048   -12.946569
Zn      4.856472   -20.912930    -0.144819
Zn      2.554003   -18.643952   -11.855274
Zn     10.703381   -22.550727    -9.339454
Zn      6.147414   -25.129732    -7.892374
Zn      1.874260   -21.441188    -3.608243
Zn     11.758306   -24.021060    -3.907396
Zn     14.671375   -18.126267    -2.854367
Zn     14.302989   -19.821566    -4.677657
Zn     13.736267   -17.319923    -5.928335
Zn     13.947741   -19.451188    -3.101535
Zn     15.227293   -17.057440    -4.412582
Zn     15.181940   -18.618381    -4.315086
Zn     11.928539   -17.237330    -3.765796
Zn     13.845886   -15.396719    -4.009501
Zn     14.790730   -15.738716    -5.232048
Zn     14.307344   -16.540492    -2.995531
Zn     13.044356   -18.817897    -5.151282
Zn     13.990510   -15.516483    -6.451059
Zn     12.327262   -16.544376    -5.343347
Zn     12.741218   -16.229766    -2.568388
Zn     13.244668   -17.800228    -2.401349
Zn     12.282934   -15.500436    -3.897485
Zn     14.906129   -18.769626    -5.852840
Zn     13.000667   -14.949175    -5.390295
Zn      7.434742   -17.108845    -5.502446
Zn     12.534791   -18.731665    -3.724765
Zn     14.263927   -19.617353    -9.076922
Zn      5.878227   -15.435744    -7.567391
Zn      3.658617   -23.240635    -2.057520
Zn     11.988926   -23.110976    -2.235910
Zn      7.885759   -23.765894    -1.413400
Zn      3.851277   -16.493106   -10.495683
Zn      9.818948   -18.546041    -3.706816
Zn      5.829347   -22.485382    -3.328094
Zn      6.084992   -19.402498    -9.948793
Zn      6.598010   -23.357966    -5.813114
Zn      8.910813   -22.684011    -7.318835
Zn      8.391798   -19.410628    -3.837986
Zn      6.066054   -16.422738    -5.491739
Zn      2.948206   -20.225005    -9.530986
Zn     10.115715   -19.382195    -7.845627
Zn     12.842376   -18.000104    -8.811590
Zn      2.891704   -22.651910    -6.575523
Zn      1.791605   -18.883984   -10.238475
Zn      4.222825   -17.946474    -7.858274
Zn      6.007690   -19.876340    -1.962258
Zn      4.360926   -24.822852    -7.640373
Zn     10.741198   -14.658580    -5.302067
Zn      6.213557   -21.696287   -11.827913
Zn      2.621464   -18.727351    -7.453452
Zn      2.342618   -21.815528    -9.420398
Zn      4.412135   -23.687344    -3.322962
Zn      3.543647   -17.404565    -5.636405
Zn      4.380734   -18.010038   -10.669030
Zn      1.656250   -18.988636    -8.632691
Zn     12.561434   -16.034940   -11.943917
Zn     14.376251   -18.154755    -9.960949
Zn     11.148800   -17.112458    -7.550016
Zn      4.022051   -20.983475    -8.617813
Zn      7.807762   -24.674761    -8.274373
Zn      5.094890   -16.649112   -11.803875
Zn      6.606953   -25.323891    -6.271135
Zn     12.127371   -18.100296    -0.575698
Zn      8.422530   -16.774433   -12.203055
Zn     10.208318   -19.685247   -13.116437
Zn     10.048630   -24.487953    -5.485969
Zn      5.641027   -18.077171    -9.068417
Zn      2.541361   -20.330876    -2.528546
Zn      2.009281   -20.562585    -4.968891
Zn      5.416183   -17.541366   -12.977164
Zn     10.085155   -22.356518   -10.931196
Zn      6.064859   -22.093168    -6.814201
Zn      5.753728   -24.715787    -4.980870
Zn      3.021511   -21.610799   -11.252054
Zn      5.519213   -16.978560   -10.142925
Zn     12.781922   -22.737609    -3.765460
Zn      6.092713   -20.849415    -3.359569
Zn      8.520173   -20.122141   -10.829811
Zn      3.072556   -19.963678   -11.421044
Zn      3.617123   -17.378390   -12.093415
Zn      3.477869   -24.243774    -5.872525
Zn      9.669568   -13.792829    -6.549812
Zn      6.052361   -18.123074   -11.349424
Zn     10.743228   -24.160084    -2.328746
Zn      8.984227   -21.179828    -1.331787
Zn      8.422203   -23.278206    -3.459590
Zn      8.839654   -25.056433    -3.657100
Zn     10.160803   -21.554607    -4.540531
Zn     12.343192   -21.678649    -1.691136
Zn      7.489466   -24.332401    -2.932385
Zn      6.272192   -20.060555   -11.463761
Zn      8.648793   -17.521863    -3.994220
Zn     12.772721   -17.762744   -12.300467
Zn     11.818488   -20.285202   -10.345422
Zn      9.819351   -16.275272    -8.712556
Zn     10.308165   -17.945845   -12.186903
Zn      8.723568   -20.048140   -12.729977
Zn      4.497754   -21.477043   -12.088400
Zn      8.460749   -19.056988    -9.382810
Zn     14.337746   -18.088850    -8.341406
Zn      9.448718   -19.015992   -11.498038
Zn     13.538846   -19.015138   -11.444410
Zn     10.661421   -15.263211   -10.052155
Zn      9.537367   -17.823270    -8.345282
Zn      3.952623   -23.661413    -8.615500
Zn     11.052794   -19.485394    -0.075186
Zn      4.282133   -16.805700    -8.917466
Zn     11.745865   -21.860423   -10.793085
Zn      4.400405   -22.368723    -7.041302
Zn      3.815761   -21.987468    -9.926064
Zn      4.810568   -20.768031   -10.504362
Zn      9.720555   -21.796373    -0.084321
Zn     10.264710   -24.465564    -3.870603
Zn      9.465321   -23.517381    -0.825527
Zn     11.263032   -22.274373    -3.748864
Zn      7.321199   -16.332930    -4.022399
Zn      8.552778   -24.100078    -4.807274
Zn      8.146405   -18.369638    -5.316541
Zn      8.407234   -19.552535    -6.788270
Sc    -23.475404    -9.758244    -0.223815
Fe      2.813812     7.659690    12.366465
Fe     -1.143708     1.960449     2.567962
Fe     -5.743613     2.333833    -5.662825
Fe     -9.119890     1.119249   -11.562808
Fe     -6.909958     1.889007    -6.640194
Fe      3.882141    11.042320     6.024056
Fe     -3.444616    -9.463337     1.191215
Fe      7.457349    -1.694273    -4.449494
Fe      9.333690     0.605641    -4.342181
Fe      7.967788    -2.568762    -5.748932
Fe      2.286646     4.506287    -1.816054
Fe      6.137022     3.614344     2.732977
Fe      9.014487    -0.632070    -0.762406
Fe      8.517714     1.392742    -5.711132
Fe      7.275386     0.644214    -6.478475
Fe      7.709275    -1.296100    -7.450892
Fe     10.276963     1.695221     2.421026
Fe      5.129739    -0.202263     1.930477
Fe      8.475763     2.009537     6.430040
Fe      9.317770     1.940565     7.740255
Fe      4.136036     4.147861    -0.972745
Fe      8.214750    -0.332741    -5.365630
Fe      6.955447    -1.129122    -5.904579
Fe      8.091641     0.161001    -7.899882
Fe      7.540107     0.742150     1.072606
Fe      9.053833    -1.671268    -4.680150
Fe      8.518892     0.289725     7.317827
Fe      8.909877    -1.127206    -6.631270
Fe      2.493989     3.094553    -3.495016
Fe      9.690102     0.020719    -5.711302
Fe      9.008799     1.652747     1.810041
Fe      8.995611     1.118341    -7.092168
Fe      6.991115     7.982924    -2.585552
Fe     -3.828963     3.944634   -14.262814
Fe     -5.247260     4.613601     8.037371
Fe     -7.987667     2.236079     8.041549
Fe     -6.982989     9.082485     6.351530
Fe     -8.042347     7.755313     2.995825
Fe      2.597022    -3.947493    -1.513289
Fe    -14.097196     5.897736     8.645975
Fe     -0.974501     2.761165    -3.791015
Fe     -5.722250     6.767145     0.538515
Fe     -9.050894     7.587371     5.289512
Fe     -8.722295     3.179808    13.888949
Fe      5.826120     3.901146     9.334939
Fe    -11.198880     8.114282     3.315365
Fe     -7.776146    -5.110538     5.743443
Fe     -7.117234    14.921648     7.390996
Fe     -6.204721     5.893015     7.518853
Fe     -5.521626     0.935772     2.281513
Fe    -11.727732     6.906654     8.587343
Fe     -9.429390    -2.327656    -0.032776
Fe     -7.193883    16.704101     0.888991
Fe     -1.386548    11.019038    -3.148908
Fe     -7.786135    14.160785     9.324392
Fe      1.532471     7.845938     1.575949
Fe     -2.025320    -1.467821    13.747411
Fe     -7.130756    -9.823347     1.774983
Fe     -1.342030    -3.887318    -2.256357
Fe      3.426348     3.615520     7.996525
Fe     -9.520643     3.034340     8.829168
Fe     -4.440773     2.723755     9.797947
Fe      5.024212    -3.535158     6.376279
Fe      0.244953    -8.334893     3.329642
Fe    -15.084111    -2.611160    -2.201989
Fe     -4.044836    -2.389557     9.432094
Fe     -8.136851    -4.967155    -6.744875
Fe     -2.713893     2.375989     2.467287
Fe     -6.738151    -0.280270     7.875829
Fe     -6.479152     7.370498     6.584916
Fe      2.667954     0.537779     3.930180
Fe     -2.896548    11.400825     5.866244
Fe      1.303473    -1.132174    -3.619904
Fe     -3.665152    -6.268753     4.460094
Fe      0.619164    -7.245817     0.186851
Fe    -10.274469    10.253751    -9.136430
Fe    -10.872075     8.124293   -11.134062
Fe     -5.119761    -2.480348    11.524579
Fe     -6.515225    -1.051059    -3.509352
Fe     -9.354173    11.846615     9.596557
Fe      1.200296    -9.163587     4.068540
Fe     -0.776926    -1.861952     0.336065
Fe     -0.126029     9.352229    11.082143
Fe     -1.179841    -0.529678    -1.935219
Fe     -0.990565    -7.515034    -4.014885
Fe     -4.682886     0.663642    -7.066642
Fe      3.844692     0.933630    -2.758845
Fe     -5.484096     6.732990     2.056447
Fe      3.547463     5.271185     9.342953
Fe     -5.562812    -2.272369    -3.466584
Fe     -9.985004    -5.591407     3.219191
Fe     -3.925160     3.679632     5.830459
Fe     -6.306984     6.786753     4.867096
Fe     -2.466472    -1.111450     1.711357
Fe     -2.791736    13.680760     7.961122
Fe     -7.263630    12.834075     8.960067
Fe      4.588843     6.624183    12.447904
Fe     -1.494129     8.795523    -0.443309
Fe     -1.301444    -0.562430    -5.527836
Fe     -8.390205     7.614786     6.631849
Fe      1.158589     2.653433     5.057776
Fe      1.944328    15.338916    -0.817918
Fe      3.395978    -0.231501    -6.069349
Fe      0.352658     7.302320     5.484598
Fe     -0.019029     1.648319    10.571924
Fe    -12.660395    -0.835808     5.646234
Fe      4.403821     6.558878     8.855899
Fe      3.955423     9.355245     9.184483
Fe    -15.051846     8.912742    -0.589845
Fe     -5.567012     9.177856    11.044947
Fe      4.887421     4.126689    -9.226989
Fe     -1.098483     3.769330    -1.758549
Fe     -7.624371     5.864364     4.872681
Fe     -8.653066     0.155170    -7.103232
Fe      4.319134    -6.165415     2.611601
Fe      6.281026    12.727841     2.214123
Fe    -15.120727     0.424908    -4.720624
Fe     -2.273694    -0.151729    -3.724558
Fe     -1.685383     1.971341     4.516299
Fe     -5.078518     5.287630     3.784470
Fe      5.940270    -1.431519     6.397058
Fe     -8.882339     5.865381     5.448328
Fe     -6.089423    -7.265438    -1.081883
Fe    -11.463396     0.998235     0.557928
Fe    -12.360067    -4.528041    -1.534254
Fe     -3.930682     1.879918    13.330411
Fe      6.882057    -2.766318     5.286919
Fe     -1.501529    -9.776096     5.749421
Fe      2.671627    -6.570184     6.119464
Fe      0.718196    -4.254128    -2.166860
Fe      2.908725     1.717549   -11.636691
Fe     -7.778815     3.229547     3.658216
Fe      0.504386     1.961941     0.398110
Fe     -6.426773     1.811807    -0.187311
Fe     -0.196525    -0.087931    -3.955211
Fe      5.680091    14.807902     0.119304
Fe     -4.490541     3.073540    11.744081
Fe     -3.707617     8.265058    -2.750252
Fe     -3.995564     1.772145     5.856740
Fe      5.855030    -5.059064    -0.331040
Fe     -5.414655     8.723014     2.602271
Fe     -7.411543    14.587924    -0.052030
Fe      3.002511     6.009976     1.367455
Fe      3.042080    10.193239     1.202758
Fe     -2.614828    -1.820994    -6.483724
Fe     -1.552838    -7.888464    -2.332939
Fe     -1.892628    10.614076     2.972331
Fe     -4.355344    -3.731864    -3.215459
Fe      5.086251     0.901596    10.754663
Fe     -6.028425     1.520283     7.379153
Fe     -7.272674     3.422175     7.635361
Fe     -2.501298    -5.217789     0.925552
Fe     -2.599800    -0.661915    12.308272
Fe     -2.003665     6.090838   -10.211947
Fe      4.192694     2.736242    -0.568742
Fe     -2.285504     0.375035     9.080467
Fe      1.831126    12.215581    -8.207960
Fe     -6.922476    -5.691333    -1.154643
Fe      1.283995    -1.652440    -0.261486
Fe      2.695808    -0.009159    -9.233274
Fe     -7.039510    10.381089   -11.826722
Fe      7.455557     7.867303     5.004650
Fe      5.875385    -3.288982    -1.765034
Fe     -0.826472     0.625432    -0.891324
Fe     -7.437771     1.111003    -2.368203
Fe      0.337735     8.355922    -4.986960
Fe    -15.438491     6.711072     1.291050
Fe      5.904204     5.852021    12.061349
Fe     -4.499456    -1.906929    -4.300844
Fe     -6.011007    -3.833503    -2.251506
Fe     -7.048842     6.506083     3.195023
Fe    -14.655052     4.926881     3.918454
Fe     -0.845291    -3.613200    -7.629540
Fe      1.548520    14.554081    -2.314008
Fe     -2.924629    -2.140412     3.049074
Fe     -4.089972     2.429090    -3.951449
Fe      4.880997    -2.500339     3.299632
Fe     -0.509351    13.647906     9.222209
Fe    -11.884027    -5.515980    -0.675038
Fe     -4.370460     4.799964     0.704675
Fe      3.068767    -7.975418     5.536737
Fe     -1.794321    -6.009524    -2.506942
Fe      3.189903     1.366186     7.791163
Fe     -7.837079     4.906827     3.384273
Fe     -1.861252     1.128523    12.208932
Fe     -5.093242    -1.643593    -0.273361
Fe     -4.846270     5.312963    13.013616
Fe     -5.840658    -3.946702     3.653071
Fe     -6.940373    -2.532354    -2.671107
Fe     -6.817884     1.564206     4.325138
Fe      3.020570    14.578983     4.354892
Fe     -7.460051    11.751270     3.152167
Fe      6.485237    -4.252636    -3.742074
Fe     -2.071399     8.667208     2.094147
Fe      8.144795     4.144553     3.777697
Fe     -2.000701     5.211140     8.709119
Fe    -11.307196    -3.966612     1.524185
Fe      0.066260    13.989405    -6.117819
Fe      2.441497    -7.208726     4.534962
Fe     -7.049790     3.323067     5.318735
Fe      7.001088     9.871491     6.598760
Fe     -3.786492     9.242457     6.989593
Fe      6.705764    -0.182579     6.234050
Fe     -4.444630    -2.716732     7.541436
Fe     -0.485060     0.779663     6.701402
Fe    -10.222570    -4.181319     2.790418
Fe      0.700202     0.452793    -1.183794
Fe     -4.575262     7.030459     5.917050
Fe     -1.272843    12.108438     4.814977
Fe     -8.168100     1.692243    11.967270
Fe     -3.280152     1.582405    11.340874
Fe      0.620512    -3.869030     3.406534
Fe     -3.835356     9.671821     4.864992
Fe      1.193382     3.535667     8.157102
Fe      7.527010    -1.132669     4.200678
Fe     -2.878917    -6.924432     0.350980
Fe      3.548207    -2.513377     6.693164
Fe     -7.260477    -7.532755     4.748387
Fe     -0.949201    -6.104783     2.987244
Fe     -3.035694    -8.145341     1.475573
Fe     -5.626957    -5.926154     9.044232
Fe     -0.619243    -8.870314     4.615725
Fe      4.299557    -6.582789     5.695502
Fe      1.617047    -2.754133     2.038055
Fe     -6.534562    11.713938    -9.443057
Fe      7.816933    11.644637     4.257803
Fe      8.399120     6.839104     7.184471
Fe      0.068864     9.486260     0.582251
Fe     -0.347979    -1.387367   -12.402635
Fe     -0.577934     5.885312    12.280553
Fe     -2.671936    15.736405     2.600299
Fe    -13.095830    10.098068     4.887839
Fe      2.941396    11.216148    -4.656587
Fe      0.070709    -6.117985    -2.697750
Fe      8.485827     9.781905     6.568407
Fe     -8.332097     6.715190    10.326007
Fe      4.393799     1.405387     4.281531
Fe      3.934877     2.937017     2.324424
Fe      2.008419    12.555303    -1.848545
Fe     -1.796580     1.217276     0.311764
Fe      1.101850     0.853000     7.709984
Fe     -7.837572    -8.405539     1.336561
Fe      5.657125     1.121656     5.646628
Fe      6.353810    -3.659150     1.848054
Fe     -0.400794    12.419724     0.664314
Fe    -12.703857    -1.869944    -3.506082
Fe     -4.657594    14.639405    -6.986081
Fe      2.004750    -7.788060    -0.478088
Fe      3.738202    -6.161139    -4.372320
Fe     -3.798709    -7.959401    -4.170557
Fe     -5.539218     3.976949     5.294522
Fe     -9.905419    12.633236    -0.247437
Fe     -9.060973    -5.729895     8.194266
Fe      2.713539    -3.689971    -4.536992
Fe      1.131246     4.309987    12.051746
Fe     -0.679511     3.621390     9.251717
Fe    -10.061786    14.156896     4.705984
Fe     -6.211981     3.512753     2.857184
Fe     -9.871393     9.965778   -10.893215
Fe      0.446181    -3.840647     9.279186
Fe      8.098016     8.787296     7.599382
Fe     -0.266228     1.704534     1.597660
Fe     -3.583335     2.931561    -2.727293
Fe     -5.449093    -8.012900     7.456766
Fe     -8.493352    -2.577109    -1.195313
Fe     -5.026343    14.595844    -2.721904
Fe      4.741449    -3.102331    -7.897680
Fe    -11.200730     3.493410     1.049332
Fe     -2.708066    10.538905     7.828974
Fe     -3.516875    -2.208315     6.227258
Fe      3.694537    10.710695     2.682042
Fe      0.719139    -0.558724     3.326008
Fe     -4.992545   -10.128857     1.540843
Fe    -11.130430     6.777320    -4.187397
Fe      4.173396    -0.951238     5.651287
Fe     -6.954223    -6.190301     3.276095
Fe     -5.907824    -4.053769     5.537444
Fe     -7.541186    -8.643019     2.778409
Fe      0.181585    -2.906283    -3.752834
Fe      6.842170     1.971092    -9.286616
Fe     -1.249995    -9.218336    -4.046742
Fe      4.634539     6.083068    -8.799474
Fe      0.494480     0.393777    -5.271415
Fe     -4.809706    10.798790    10.302323
Fe      2.069571     2.623502     9.209220
Fe     -0.886170     8.237558    -2.558709
Fe    -15.324565     4.584736     1.870132
Fe     -1.096482     9.910035    -1.756340
Fe    -15.288033     3.502853     2.988574
Fe    -16.548762     3.254235     1.884332
Fe     -2.637579    10.351521    -0.914347
Fe    -13.800276     4.195598     2.721473
Fe     -2.238941     8.739559    -1.977810
Fe    -16.561772     5.166171     4.503117
Fe     -3.390827     9.165915    -0.753707
Fe    -15.161812     7.209665     3.130624
Fe    -14.394367     5.467245     5.830196
Fe    -14.165477     6.507614     4.374742
Fe    -15.549957     6.455093     5.454256
Fe    -16.715001     3.464947     3.763417
Fe    -15.717497     4.867830     6.186504
Fe    -16.323598     5.973263     2.763991
Fe    -16.870822     4.656959     2.760509
Fe    -14.279905     5.899791     2.628283
Fe    -15.578752     4.034418     4.886212
Fe    -12.927880     5.280343     3.539354
Fe    -13.312727     4.889241     4.965577
Fe    -16.208910     6.723487     4.104398
Fe     -3.842274     6.276335    -3.730988
Fe     -4.692314     8.636684    -1.820297
Fe     -4.397868     7.023951    -2.640315
Fe     -9.919417     2.965033   -10.890518
Fe    -11.474230     2.906243   -11.306312
Fe     -8.714669     2.078160   -10.222521
Fe     -9.642222     2.857307   -13.023952
Fe    -12.005535     1.278235   -10.780880
Fe     -9.961250     0.130427   -10.537248
Fe     -8.634435    -0.671741   -11.102721
Fe     -8.127030    -1.506497   -12.336989
Fe    -10.150519    -1.131378   -11.748884
Fe    -10.835541     1.993503   -12.234934
Fe     -8.179770     2.440885   -13.188570
Fe      0.678245    14.525421     4.141226
Fe      3.968643    14.711522     5.801948
Fe      1.688647     1.173830     5.163229
Fe      3.706036    16.195110     4.991135
Fe     -2.940994     5.211802    10.039943
Fe      4.465189    13.786874     2.403296
Fe      2.728074    13.311024     2.940354
Fe      1.211793    13.967795     5.627514
Fe      2.299802    14.124932     6.835132
Fe      3.163600    15.237609     3.036768
Fe      5.158335    13.899887     6.626909
Fe      5.240543    15.197356     2.595566
Fe      4.636710    12.912796     5.527309
Fe      1.436784    16.831498     5.180370
Fe      2.704519    16.848193     3.766722
Fe      4.585514    13.924974     3.992924
Fe      5.988280    13.483328     5.161686
Fe      3.084830    14.248399     1.699179
Fe      1.365713    15.114127     2.836897
Fe      0.320949    15.673444     5.242996
Fe      5.953971    14.460435     3.853189
Fe      5.194193    15.231142     5.051838
Fe      2.040109    15.758840     1.748396
Fe      3.708345    12.748285     4.180786
Fe     -8.198113     0.859032   -13.515402
Fe     -7.922660     0.636415   -10.437941
Fe     -8.991986    -0.394872   -12.870034
Fe     -7.549732     1.539903   -11.831710
Fe    -11.551793    -0.332168   -10.696930
Fe     -7.014996    -0.104489   -11.609489
Fe     -9.740540     1.071384   -13.055231
Fe    -10.569727     1.593539   -10.224443
Fe     -6.893518    -0.852930   -12.945132
Fe     -7.624046     1.894347    -7.937858
Fe     -9.935578     4.064540   -12.129266
Fe    -10.906724     0.357310   -12.036115
Fe     -6.787235     0.664257   -13.168744
Fe     -8.576389     3.086374   -11.675514
Fe      0.656085    10.760468     7.604822
Fe      3.239378    11.919816     1.404591
Fe     -2.231126     5.148181     1.403129
Fe      2.450653     7.988236     4.639349
Fe      0.960710     5.010796     7.008079
Fe     -0.517073     4.478316    -0.103943
Fe     -5.259513    -3.425145     8.525060
Fe      3.276970     1.609978     0.499641
Fe      8.952321     0.706374     5.784807
Fe     -3.361104     3.415396    -9.260402
Fe      5.294584    12.251486    -4.505580
Fe    -12.363373     6.840671    -2.640730
Fe     -9.117911    -3.262501    -4.383131
Fe     -9.400248    -1.650283     6.857439
Fe     -9.482076     9.325966    -3.885069
Fe     -0.708392     3.623742   -11.451002
Fe      5.849701    10.759769    -4.562436
Fe    -12.114294    -4.419506    -5.806814
Fe    -12.901407     0.716965     9.525436
Fe     -9.338240     7.732774    -6.676696
Fe    -13.983945    10.830795    -4.300540
Fe     -5.698361    -6.600503    -4.256283
Fe    -11.521511     6.166984    -9.429897
Fe    -14.357683    -3.369418     6.576591
Fe    -11.349736     7.884869    -8.591145
Fe     -8.163316    -4.566880    -3.460717
Fe     -8.992254     6.082688     0.082068
Fe    -13.645565    -3.120184     2.446594
Fe    -15.268598     4.234191    -2.063159
Fe     -1.054653     6.193453   -14.101094
Fe      8.194151     6.833598    -5.415752
Fe     -2.559453     3.386581   -10.813897
Fe      7.953588    10.477380    -2.352099
Fe     -3.694165     7.929963    -9.785527
Fe      9.427314     6.988356     2.341408
Fe     -1.165185     1.901255    -8.128235
Fe      7.342100     5.137050    -1.806018
Fe     -1.966082     4.506800   -11.821814
Fe      3.967718     8.654819    -0.434848
Fe     -1.347942     9.055218    -9.426191
Fe      9.733536    10.826443    -0.963770
Fe    -10.964973    -6.609234    -4.155148
Fe    -12.788591     5.101255    -0.091013
Fe    -15.956626     1.014055     5.654254
Fe    -13.376875     3.200355    -7.171703
Fe     -5.728815     4.170943    -8.613069
Fe      6.393517     3.800620    -4.926204
Fe     -9.576955    -2.017226    -5.389007
Fe    -15.539311    -2.259204     3.663377
Fe    -10.461317     5.049855    -9.153483
Fe     -6.913025     5.440063    -4.964250
Fe     -6.780358    -5.958390    -3.282701
Fe    -13.634235    -0.218784     6.973408
Fe    -13.176063     8.476469     0.086171
Fe    -12.385453    10.789048    -6.852237
Fe     -7.615148    -4.984200   -10.633994
Fe    -10.035379     5.618716    -0.847304
Fe    -13.842195    -4.346038     5.212472
Fe     -7.467236     9.769989    -6.137008
Fe     -3.897990     7.585637   -13.911395
Fe      7.821343     6.569665    -2.381891
Fe     -1.073871     2.413410   -12.672813
Fe     10.145877     5.376410    -4.004410
Fe     -1.986746     7.948843   -10.534846
Fe      7.197971     6.429942    -0.612252
Fe     -1.413675     9.630641   -12.948174
Fe      9.353241     4.402952     0.567881
Fe      0.234680     4.037020    -9.995456
Fe      7.987050     3.537811    -4.428995
Fe      1.909825    10.312321     0.407477
Fe      0.715144     6.421480   -10.293872
Fe      8.017266     3.189728    -2.801930
Fe     -5.923590    -4.301632   -10.683800
Fe    -14.290576     3.227323    -3.176366
Fe    -11.129743    -4.534258     5.986206
Fe    -13.812909     6.156735    -0.563826
Fe     -1.341819     5.763976    -5.965555
Fe      4.058892     7.232823     0.000634
Fe     -7.743033    -3.819528    -5.481635
Fe     -7.757099     3.512624    -4.418835
Fe    -12.785979    -2.267511     9.028984
Fe     -7.134567     5.532260    -2.227515
Fe     -8.524266    -7.695574    -7.729669
Fe    -12.911203    -2.658114     6.274040
Fe    -12.689297    11.575977    -5.356004
Fe    -12.220831    10.242532    -4.747419
Fe    -10.746640     2.069776    -4.993819
Fe     -9.587821    -7.478043    -6.649321
Fe    -11.188603    -0.179953     4.971169
Fe    -12.725151     7.395775    -8.920751
Fe     -4.080672     3.527946   -11.019156
Fe      3.133312     7.070815    -1.341274
Fe     -1.029729     5.640232    -8.971060
Fe      2.694248     7.780935    -4.200861
Fe      1.520795     4.454700   -13.123757
Fe      6.329263     9.194177    -1.862618
Fe     -6.450535     6.982701   -12.540958
Fe      7.395166    11.199645    -6.286077
Fe     -4.459242     3.664306    -7.402017
Fe      3.385089    10.534635    -2.463041
Fe     -2.152313     4.849020     6.780461
Fe     -2.809647     8.835891     5.750827
Fe     -6.048660     1.257445    -4.928818
Fe     -2.736525     2.416731     0.657084
Fe     -3.246611     4.004976     1.801191
Fe     -1.192275     7.606187    -6.222930
Fe     10.201481     9.257830    -1.076578
Fe    -10.828474    -7.186650    -5.663225
Fe    -15.074165     5.884886    -6.594821
Fe    -11.409744    -4.474415     7.556619
Fe    -12.598785     8.184344    -3.258386
Fe     -3.246271     2.450397    -7.831327
Fe      4.687013     6.021576    -5.953161
Fe     -8.748805    -2.018534    -7.438327
Fe    -10.430248     8.405798    -5.177066
Fe    -13.395837    -2.713755     4.653843
Fe    -10.511256     7.915221    -1.162522
Fe     -7.273468    -6.669165    -4.787581
Fe    -13.016539    -3.615366     7.821004
Fe    -10.193763     4.278289    -6.092742
Fe     -8.716016     5.745700    -4.578675
Fe    -14.403708     5.123628    -3.889970
Fe     -5.385606    -5.016124    -9.281729
Fe    -10.911687    -1.760092     5.743769
Fe     -8.560801     4.425988    -5.194973
Fe      2.133240     4.847061   -11.620346
Fe      8.274562    12.336945    -2.163437
Fe      1.398157     6.181803   -12.072252
Fe      7.642406     9.729156    -0.850870
Fe      0.625770     2.429798    -8.189352
Fe      7.705750     4.280101    -5.987865
Fe      0.116624     4.898700    -6.329961
Fe      5.644725     8.694659    -7.547181
Fe     -2.777322     8.356182    -8.455941
Fe      9.599608     8.542380     1.933261
Fe     -6.375431     1.606828    -3.248755
Fe      4.173126    -3.425113    -4.553871
Fe     -8.420279     1.013468    -1.500848
Fe      2.372706    -5.153154    -4.601030
Fe      2.266957     3.015266    -5.187030
Fe      6.554679     2.677892     4.037646
Fe      6.666688     4.341866     4.415477
Fe      9.764254    -0.102671    -2.472758
Fe     10.035759    -1.424336    -1.556451
Fe     10.349607     0.051293     0.317055
Fe      7.510103    -1.188936    -0.718430
Fe      8.950881    -2.219637    -2.418853
Fe      9.636153    -1.909639     0.182413
Fe      8.999726     0.755364     0.029701
Fe      9.412377    -0.834572     1.245089
Fe     10.140355     0.887290    -1.155452
Fe      7.947681    -0.978333    -2.238001
Fe      8.424522     0.540072    -1.715453
Fe     -1.013299     7.006349     7.981471
Fe      8.621069    -2.496360    -0.855309
Fe      7.623331     1.435239     7.792278
Fe     -6.805264    -7.945003    -4.182000
Fe     -8.669458     5.225534    -2.879779
Fe    -13.068080    -1.699747     2.394409
Fe     -8.264338     9.739802    -1.285815
Fe     -0.050945     9.578830    -8.130318
Fe      6.354553     4.590968    -0.448806
Fe     -5.620613    -8.533607    -5.741833
Fe    -11.147681    -2.083363     9.551618
Fe    -11.852781    10.338099    -3.074286
Fe     -8.361610     8.542812    -5.067529
Fe     -6.198651    -7.220969    -5.934281
Fe    -12.196759    -2.917905     3.274163
Fe     -8.958109     6.992267    -5.349000
Fe     -7.723146     4.942302    -6.371023
Fe     -7.724890    -2.528750    -4.732605
Fe    -13.009627     6.623934    -6.019713
Fe    -15.953926    -1.057563     2.666401
Fe     -9.774202    10.017113    -7.469998
Fe     -2.068468     5.162773    -7.645388
Fe      6.870227     9.126241    -4.725553
Fe     -0.016359     2.316810   -11.191961
Fe      8.686707     8.543000    -6.853454
Fe     -5.297269     6.253582   -11.139782
Fe      8.506506     7.249228     1.081581
Fe     -4.249090     6.374918    -9.608800
Fe      8.809196     7.856787    -3.404526
Fe     -0.286594     3.106897    -6.902814
Fe      6.753643    11.105106    -1.357764
Fe     -4.792787     9.276256    -8.683916
Fe     10.528071     5.980732    -0.628226
Fe      1.195659     8.311627   -12.739869
Fe      7.480968     7.932161    -1.008544
Fe     -6.290658    -5.327309    -5.843251
Fe    -11.850926     5.566084    -5.556265
Fe    -15.707184    -0.469485     6.296119
Fe    -11.556025     9.773420    -7.767210
Fe     -1.511482     4.170273    -9.704282
Fe      5.101957     9.025464    -5.041966
Fe     -7.720763    -2.354514    -9.238461
Fe    -12.777577     2.748004    -3.010733
Fe    -15.229956     0.922835     7.242186
Fe    -11.619365     9.029479    -1.890410
Fe     -7.224485    -2.009316    -7.829398
Fe    -14.162797     5.867167    -7.843247
Fe    -13.846094     2.093004     4.333480
Fe     -7.797368     6.462541    -1.040090
Fe     -7.265297    -8.348161    -6.801533
Fe    -11.115850    12.306946    -4.015922
Fe    -11.691309    -3.440130     8.814268
Fe     -8.415885    10.320999    -2.729369
Fe     -2.915448     6.300033   -14.409016
Fe      5.607031     7.202429    -6.870274
Fe     -3.359934    10.583924   -10.997576
Fe      9.150871     7.280228    -1.762390
Fe      0.327464     8.371973    -9.724632
Fe      8.074251     9.301102    -3.524106
Fe     -6.607525     7.384335   -10.894417
Fe      4.179033     7.988151    -3.780956
Fe     -0.803970     5.311683   -10.786892
Fe      8.833706     6.301621    -3.620651
Fe     -2.426545    -1.760556    -8.185481
Fe    -10.340970    -0.522077    -8.635081
Fe      7.546220     0.331573     2.499369
Fe      6.151104    -5.430562     1.344930
Fe     -9.648817     0.129667    -5.909329
Fe      3.565123    -4.499307    -5.566331
Fe     -2.321915    -6.499240    -8.967519
Fe      0.093101    10.020838    -5.428401
Fe     -1.572922    -8.464668    -5.465259
Fe      5.899769     2.716627    -7.869501
Fe      1.903278    -4.900576    -7.004941
Fe     -1.858080    -6.948546    -7.452901
Fe      2.552941     5.760933     8.326007
Fe     -1.431400     8.652584     5.931065
Fe      3.842797     9.265154     6.385826
Fe      4.486929    -1.259387     1.426587
Fe      8.635293     3.862194     7.763623
Fe      8.163092     2.768408     8.551348
Fe      6.962634    -0.412881     0.858781
Fe      9.404041     3.516832     6.517180
Fe     -1.725840     6.981558     5.118723
Fe     -8.406781    -7.941871    -3.566116
Fe     -9.194236     5.885736    -8.750466
Fe    -12.204824     2.716251     7.181274
Fe    -11.825563     6.642686    -0.865791
Fe      1.852528     9.110756   -10.121526
Fe     10.466321     8.154142    -2.541736
Fe     -9.344244    -5.021081    -4.833876
Fe     -9.224559    -0.457973     5.716362
Fe     -9.109363     4.713529    -7.747420
Fe    -12.049505     2.394480    -6.179648
Fe     -8.967600     8.304021    -2.167523
Fe     -6.996976    -5.861737    -8.614640
Fe     -9.805675    -3.169860     6.806135
Fe    -12.511815     2.299482    -4.449443
Fe     -9.476279    -2.425827    -8.845519
Fe    -14.973588    -2.381999     2.121425
Fe    -13.306082     9.472553    -3.903688
Fe    -12.634324    11.999594    -3.809253
Fe      0.980348     2.439169    -9.854385
Fe      4.326818    11.898020    -1.579841
Fe     -2.776957     9.017741   -11.550168
Fe      4.065564     5.556538    -2.450713
Fe     -0.541860     6.338815    -7.634325
Fe      8.424599    11.511893     0.799650
Fe     -1.226889    10.337403   -10.366656
Fe      5.294454    10.812833    -2.348418
Fe     -6.510333     4.602850   -10.107825
Fe      7.343862     7.537164    -7.553449
Fe     -1.862976     7.742069   -13.935294
Fe      5.743959    12.509362    -1.250974
Fe      0.041853     8.661228     9.084071
Fe      0.157080     9.258349     6.344405
Fe     -6.363723    -7.907363     8.757531
Fe      1.024185     5.889155     4.230473
Fe      0.659944     5.050025     0.041462
Fe      0.144218     7.221967     1.837738
Fe     -2.542224     5.503404     5.094760
Fe      3.894478     6.668861     7.447926
Fe     -1.117474     4.106144     5.265206
Fe      8.867554     0.471559     2.803511
Fe     -0.015566     8.511507     7.597914
Fe     -2.587802     2.118717    -1.519237
Fe     -3.701692     5.266879    -1.209389
Fe     -3.267363     6.170075     0.852458
Fe     -1.268657     2.727972    -0.253351
Fe     -1.143785    -1.437375   -14.121346
Fe     -0.217867     0.087914   -12.425368
Fe     -2.281834    -2.306067   -13.673613
Fe     -1.546405    -0.986902   -11.299022
Fe     -3.807848    -2.077460   -12.902707
Fe      2.766533    -1.260981   -12.518247
Fe     -3.167652    -0.760302   -13.790457
Fe      0.757421    -1.696351   -13.577566
Fe      0.009081    -0.280046   -14.172109
Fe      1.785353    -2.444594   -12.743990
Fe      1.840231    -0.559398   -13.660426
Fe      1.834608    -2.819878   -11.373691
Fe      0.679089    -3.597385   -12.290190
Fe     -1.362071    -3.761367   -12.665696
Fe     -1.504624     0.194892   -14.255459
Fe     -2.604319    -2.918939   -12.356029
Fe      5.503737     2.614584     0.981478
Fe      2.257601     8.475153     2.934736
Fe      0.129008     8.572678     2.494746
Fe      2.178584     9.859494     3.817885
Fe     -4.159388    -1.039245    -2.580435
Fe      4.373894     0.007082     2.984026
Fe     -5.086662    -4.813582    -7.596325
Fe    -11.616542    11.891928    -2.490283
Fe    -11.209094     0.740521     3.452186
Fe     -0.373099    -2.837383   -13.447051
Fe    -13.537503     8.207088    -5.630130
Fe     -2.592832     2.889340   -12.360982
Fe      4.435920     8.887451    -2.223243
Fe     -6.696785    -4.842951    -7.532718
Fe     -8.690167     3.676495    -6.719288
Fe     -9.759707     0.534762     4.360300
Fe      1.824436     0.263352   -12.453014
Fe    -13.715974     5.078275    -5.500966
Fe     -8.801591    -3.201311   -10.151029
Fe     -9.958759     6.020377    -3.349157
Fe    -13.180509    -4.302795     3.743616
Fe     -2.979228    -1.243884   -11.910277
Fe     -7.345375     9.884543    -4.041950
Fe     -5.778102    -3.586672    -8.598082
Fe    -13.964649     7.889753    -4.076827
Fe     -9.948424    -1.185359     4.267868
Fe      0.169905    -1.184398   -10.804488
Fe    -13.339383     4.512968    -2.984547
Fe     -5.299478     7.787209   -13.213511
Fe      9.737182     7.789020    -5.524889
Fe     -0.480818     1.633286    -9.679961
Fe      6.898369     8.088611    -6.089180
Fe     -2.871880     6.579102    -8.820277
Fe      8.759946     5.379934    -6.629417
Fe     -4.623510    -6.016097    -6.505341
Fe    -12.175594     1.142213     5.080852
Fe     -9.222949     2.835744    -5.428742
Fe     -6.485524     8.247224    -3.654859
Fe     -4.769190     2.935333    -8.902761
Fe      6.722980    10.372550     0.466705
Fe    -10.536515     2.864298    -6.668188
Fe     -6.890976    -3.505323    -6.780177
Fe    -16.269420    -0.260791     4.386266
Fe    -13.080028     5.020889    -6.977417
Fe     -9.205435    -4.751665   -10.291557
Fe    -11.392420     8.374577     0.138433
Fe    -10.110244     0.943827     6.025934
Fe     -8.441594     9.108659    -7.444063
Fe    -11.507480    -2.964961    -6.686965
Fe    -12.129226     7.816637    -4.881924
Fe    -11.192915    -1.676510     7.737359
Fe    -11.094597     5.407861     0.262103
Fe     -4.354124     9.499372   -12.444590
Fe      8.138676     5.326894    -0.126144
Fe      0.536201     7.061351    -8.852588
Fe      8.859046    10.103934     0.076092
Fe      0.604527     4.965084   -11.305004
Fe      7.070658     7.514703     0.697297
Fe      1.475966     5.517378    -7.522994
Fe      8.997642     5.456371    -1.667905
Fe     -3.290040     1.506631   -11.468537
Fe      6.624070    11.563085    -3.049681
Fe      2.548270     7.782275    -9.741052
Fe      7.281502     9.089692    -7.754971
Fe     -2.093870     9.706321     4.294253
Fe     -0.740582     8.397728     4.591734
Fe     -3.824664     2.516943    -0.579212
Fe     -6.765902     8.935060     9.594972
Fe    -10.328638    -5.348213    -9.076713
Fe    -15.294565     8.731437    -2.323811
Fe    -12.361968    -0.065304     8.043403
Fe     -0.558670    -2.621268   -11.706622
Fe     -9.610997     4.061744    -3.868091
Fe     -3.788629     7.984292   -12.299429
Fe      5.387041     7.538528    -5.088485
Fe     -6.661136    -4.457831    -4.250274
Fe    -13.868147     7.367701    -7.720809
Fe    -14.736130     2.499614     7.363224
Fe      2.089348    -1.387245   -11.084782
Fe     -9.286422     9.411143    -5.922859
Fe    -10.952742     6.123637    -2.044139
Fe     -4.559089    -7.709633    -6.998081
Fe    -10.668533     1.304074     7.619512
Fe     -1.931904    -0.458550   -12.861683
Fe     -8.965875    11.169560    -6.508925
Fe    -11.390141    -2.684904    -8.481098
Fe     -7.007271     7.189698    -4.906109
Fe    -14.379785    -0.705813     2.403454
Fe      0.940596     0.790831   -13.770743
Fe     -9.656886    10.772426    -1.542468
Fe     -1.108048     8.086641    -8.175319
Fe      8.415577     3.652062    -0.748194
Fe     -2.639481     6.735205    -5.909733
Fe      9.362598     3.607111    -2.045736
Fe     -0.086486     6.727424   -12.550928
Fe     10.294717     4.922254    -2.473576
Fe    -10.027523    -3.609853    -7.799236
Fe    -13.876769     6.030129    -2.290239
Fe    -14.658269    -3.759210     3.460848
Fe    -12.043895     4.460819    -8.946889
Fe     -7.047308     5.811522   -11.551208
Fe      4.192002     7.957269    -6.279048
Fe    -10.448142    -6.621688    -7.681666
Fe    -10.707776     6.900389     0.435618
Fe    -11.087423    -0.441717     6.687320
Fe    -10.934400     6.904111    -5.898606
Fe     -8.083805    -1.650235    -6.015004
Fe    -13.042706    11.063839    -1.254361
Fe    -11.439686    -3.011471     6.886267
Fe    -11.887601     5.404361    -3.513664
Fe     -8.588758    -6.018869    -7.700552
Fe    -10.707371     9.802867    -0.393590
Fe    -13.721032     1.125769     5.615080
Fe     -9.881209     5.737779    -6.135288
Fe     -1.775041     1.746692   -11.208786
Fe      3.557023     5.400258    -4.405989
Fe     -1.458417    10.635300    -8.621036
Fe      5.186174    11.433385    -0.043412
Fe     -1.023129     9.095612   -11.416990
Fe      4.989714     6.234831    -4.071104
Fe     -1.707383     7.709099   -12.323121
Fe      5.664254     6.923812    -0.025858
Fe      1.083861     3.249902   -11.965461
Fe      9.316916    11.248086    -2.592848
Fe     -4.739416     4.731315    -9.913182
Fe      7.407802    12.724351    -0.841777
Fe     -0.497538     3.302579    -8.795544
Fe      3.582609     6.862864    -5.159386
Fe    -10.139171    11.376531    -2.943176
Fe     -5.183576    -5.250130    -4.233205
Fe    -10.965237    -0.003543     8.742532
Fe    -12.272438     9.133636    -5.892463
Fe     -2.252984    11.292717    -9.986337
Fe     10.507157     6.482993    -2.360060
Fe     -8.859817    -4.539912    -8.762013
Fe    -13.400947     3.138043    -5.546638
Fe     -9.629209    -0.041810     7.407820
Fe    -11.588355     4.309972    -0.994907
Fe     -7.372149    -3.465579   -10.841169
Fe     -7.999609     8.111589    -0.819429
Fe    -12.025749     0.884163     6.594811
Fe     -9.244221     6.751542    -1.795708
Fe    -10.514920    -4.371010    -5.990718
Fe    -13.877966     9.828462    -0.843436
Fe    -10.171172    -3.041270     8.360046
Fe    -15.396031     6.356360    -1.477801
Fe     -3.498857     4.713957   -12.340847
Fe      9.310259    10.346821    -3.935763
Fe      2.341015     7.128569   -12.694571
Fe      6.756578    12.925614    -4.163575
Fe     -4.793177     2.063647   -11.435723
Fe      5.370755     7.888399    -1.297973
Fe     -4.360849     7.954727    -8.157824
Fe      7.216208     7.362518    -4.204510
Fe     -0.947782    10.916858   -11.623913
Fe      9.534188     3.816240    -3.686281
Fe     -6.260504    -2.886899    -9.811143
Fe    -10.667804     7.735088    -2.723475
Fe    -15.460925     1.361554     4.171981
Fe    -14.566226    10.291817    -2.401595
Fe     -3.774676     1.953944   -12.990942
Fe      6.211741     9.616633    -6.094271
Fe     -4.738836    -6.445070    -8.261294
Fe    -11.016197     2.234504    -3.410085
Fe    -13.468091     1.397738     7.229123
Fe     -8.608103     7.412029    -8.181579
Fe     -9.953871    -4.530292    -3.604206
Fe    -11.412353    10.726249    -1.470746
Fe     -9.944799    -1.383042     8.523615
Fe    -14.477841     6.605838    -5.281267
Fe     -5.128304    -3.607949    -6.484165
Fe     -7.109988     7.463115    -2.138187
Fe    -10.239961    -0.508179     3.045336
Fe    -13.234837     9.345757    -2.195320
Fe     -5.599053     3.128618   -10.292648
Fe      8.653550     8.935344    -1.945906
Fe      1.366655     7.153687    -7.535793
Fe      4.553614     9.526433    -6.689216
Fe     -3.819000     1.980074   -10.052975
Fe      7.504641    10.379553     1.871177
Fe     -0.041077     4.690721   -14.185952
Fe      8.842916     6.970887    -6.973498
Fe     -1.691376     2.504626    -9.872634
Fe     10.310777     7.087361    -3.988988
Fe      0.208165     6.494431    -6.309787
Fe      5.441336     9.978865    -0.914393
Fe      5.019124    15.674762    -1.567421
Fe      1.306388     5.475598    -2.730782
Fe     -4.074068   -10.450581     0.039082
Fe      0.161005    10.018637    -9.619409
Fe     10.594838     7.665016    -0.850537
Fe    -12.226204    -4.065439    -7.427318
Fe    -14.353400    -1.773785     6.135069
Fe    -15.925459     7.374714    -2.733244
Fe     -8.243386    10.668318    -5.149586
Fe     -4.562855     6.218786   -13.062583
Fe      5.574222     5.454484     0.442855
Fe     -9.919099    -5.932532    -5.906971
Fe    -12.470290     1.886287     3.600369
Fe    -14.107754     7.750982    -2.297839
Fe     -7.501459     6.535664    -6.219762
Fe    -16.011972     5.615991    -2.782038
Fe     -8.163481    -3.502957    -7.803818
Fe    -14.976063    -3.109359     5.026578
Fe     -7.001683     4.683801    -3.646361
Fe    -12.719659     4.222650    -4.532600
Fe     -9.849777    -7.821112    -4.091844
Fe    -14.924987    -0.915344     7.633127
Fe     -7.557559     8.046548    -6.594324
Fe      0.387213     9.701864   -12.453950
Fe      5.843386     6.213700    -1.583489
Fe     -0.469988     8.440588   -13.237257
Fe     10.003687     9.749394    -2.576528
Fe     -1.257169     3.643617   -13.524951
Fe      8.932271     8.311746    -0.255251
Fe      1.141556     4.000728    -7.344072
Fe      8.593001     5.478411     1.667358
Fe     -1.017629     7.242001    -9.491244
Fe      8.302979     8.438003    -5.031673
Fe     -4.164840     2.973934     7.860683
Fe     -0.161417    11.297698     6.217337
Fe     -7.871191     1.844968     0.162465
Fe      3.620917     1.114525    -0.981319
Fe     -2.712343     2.228640     7.566139
Fe      0.401442     2.371149    12.032955
Fe     -7.140878    -6.113307    10.267931
Fe      2.654849     7.421082     8.595757
Fe      1.354154     9.633768     8.386816
Fe      2.086437     5.081466    -9.656044
Fe      8.220212     8.801737     2.579681
Fe     -6.565430    -1.954236    -6.044509
Fe    -15.870114     0.552559     2.813111
Fe    -10.840298    11.460655    -7.039236
Fe    -13.299016     3.715189    -1.612030
Fe     -4.102525     3.543079   -13.004159
Fe      7.960172     9.840114    -6.365105
Fe    -10.108777     9.473475    -2.342675
Fe     -7.878988    -6.291458    -9.765004
Fe    -12.092714     1.580061     8.406553
Fe    -15.934749     6.296783    -4.577545
Fe     -6.133900    -6.403021    -7.294213
Fe    -10.297549     3.731970    -8.028240
Fe    -14.379496    -0.261054     5.432375
Fe    -11.297313     3.124190    -1.947353
Fe    -11.224496    -4.993402    -4.353394
Fe     -9.567953     7.584988    -3.968959
Fe    -13.673016     2.217772     8.603910
Fe    -15.554432     4.885484    -5.298472
Fe      2.441181     6.336121   -10.715170
Fe      6.827641     8.123866     2.371311
Fe     -2.506822     2.958051   -13.985094
Fe      9.792541     6.141603    -5.467302
Fe     -3.149617     3.602037    -6.463591
Fe     10.165836     9.241551     0.542661
Fe     -3.407961     6.130578    -7.218905
Fe      5.533569    11.189108    -6.322661
Fe     -3.976867     7.656825    -6.556307
Fe     10.319926     7.473573     0.785880
Fe      3.564727     9.339509     4.579757
Fe     -0.566019     6.875354     4.005861
Fe      0.309372     8.230461   -11.280484
Fe      6.195343     9.388342     1.755926
Fe     -9.786131    -6.245648    -3.281187
Fe    -10.721572    10.362700    -4.357264
Fe    -12.799257    -4.595935     6.534835
Fe    -14.589731     3.617480    -4.810847
Fe      0.126257     8.175906    -7.291427
Fe      8.249834     5.334232    -4.794455
Fe     -8.920045    -8.259129    -5.509583
Fe    -13.887614     8.945913    -7.094818
Fe    -11.009766     2.339308     6.227263
Fe    -11.289854    12.187537    -5.650093
Fe     -5.991174    -3.327683    -5.258249
Fe     -8.443370     4.891190    -1.194680
Fe    -12.072987    -1.436665     4.187631
Fe    -12.351672     7.781935    -6.974778
Fe     -7.516008    -8.682667    -5.237578
Fe     -9.105274    -2.003582     5.160322
Fe    -14.689968     9.260088    -5.357819
Fe    -11.945802     4.103586    -6.273004
Fe      1.122687     5.889634   -13.619907
Fe      5.715906     8.323863    -3.522592
Fe     -2.136391     3.660938    -8.129258
Fe      7.874782     8.972828     0.912315
Fe     -4.548206     5.109167    -6.734823
Fe      5.250010    12.820756    -2.911540
Fe     -2.614309     8.526273    -6.520804
Fe      6.254426     8.739628    -0.059226
Fe     -5.367547     5.628324    -8.537270
Fe      6.159647     5.057263    -3.153409
Fe      4.432435    -3.731270     3.313028
Fe      3.168201     0.212141    12.419961
Fe      6.265399    -6.505383    -0.094344
Fe     -1.627452    -2.564931     1.954648
Fe      5.630332    -0.379202     4.943626
Fe     -3.448427   -10.489790     2.334768
Fe      1.036079     8.331273    13.262701
Fe     -8.120354     0.496640    -3.620644
Fe      2.314398    11.909346     0.356996
Fe      1.538443    14.188654    -3.677556
Fe      7.602327    12.886210     3.243949
Fe      7.655726     6.567883     5.820953
Fe     -6.466277    12.704728    -0.858722
Fe     -7.045752    15.272240     1.620052
Fe     -0.153907     8.284194    -1.240874
Fe     -3.081834     7.973327    -3.911061
Fe     -0.197950     0.793701    -2.518863
Fe    -11.348812     9.724508   -10.423926
Fe     -0.332115    14.541259    -0.744043
Fe      6.087138     6.005631     9.873494
Fe      0.157994    -9.231175    -0.276438
Fe     -4.530054     4.123154    -0.900030
Fe     -7.862666     1.835291     5.679247
Fe    -10.047692    -2.551470    -2.246829
Fe     -3.223988    -1.019888    -1.342173
Fe      3.085028    -4.110154     4.608163
Fe    -11.566850    -6.900982     0.460791
Fe     -5.380672     4.305787    14.355833
Fe     -0.600078    -1.360759    -3.838675
Fe     -1.751865    -5.784555    -5.554762
Fe     -7.498902    10.303741     3.782008
Fe      1.375388     9.715374    -5.960479
Fe      1.321972     2.182621    -4.280574
Fe      4.789130     1.344582     0.655401
Fe      5.792456    11.309727     6.195426
Fe     -0.840948    15.534387     8.623729
Fe     -5.736216    -0.498605     6.048119
Fe     -4.673529     1.412328    10.648293
Fe     -3.748210    10.550947    11.550659
Fe     -7.185573    -8.344451     7.358890
Fe      1.745979    14.428448     0.089757
Fe    -11.446957     3.081479     9.619007
Fe     -3.572590     3.603166    10.357943
Fe     -1.644291    -6.848650    -0.435274
Fe     -4.149463    -8.426286     0.259148
Fe      0.356710    -6.241633     3.506882
Fe     -4.729813    -6.992315     9.922900
Fe     -6.116011    -2.435886     3.729586
Fe      5.638628    -0.170362    -8.318055
Fe      0.380959     3.516565     1.129328
Fe     -3.408134     6.453033    -0.527455
Fe     -6.541780    -4.610577     9.572732
Fe     -0.165878    -9.824425     3.141830
Fe      5.031633     5.966298     6.595529
Fe     -2.554356    10.511932   -12.211067
Fe     10.080671     5.847913     1.054209
Fe     -2.976903     4.921469    -9.648993
Fe      4.690643     4.406497    -3.478881
Fe      1.674409     3.755865    -8.755391
Fe      7.410384    10.729515    -4.428460
Fe     -1.756776     4.679508   -14.533017
Fe      6.814889     5.435112    -4.381696
Fe     -0.442425     4.583010    -7.825031
Fe      7.025807     5.607646     1.347135
Fe     -3.040886     6.598918   -12.878981
Fe      6.588231    12.216910    -5.544565
Fe     -2.978895     6.917440   -11.277308
Fe      7.511319     4.152493     0.651885
Fe     -2.552359     1.571086    -9.121043
Fe      6.162948     5.059563    -6.082989
Fe     -3.510492     5.530433   -11.074866
Fe      8.186936     4.838355    -3.151747
Fe     -1.516243     4.909692    13.297365
Fe      5.385247     2.011365     2.868977
Fe     -1.257527     5.240718    -1.566389
Fe     -8.616433    -2.808679     1.814906
Fe     -5.062707     0.120746     0.237420
Fe     -1.846228     2.598618    -6.851948
Fe      3.436192     9.084225    -5.108400
Fe     -4.675867    -4.783910    -5.517873
Fe    -11.171413     3.545059    -4.800494
Fe    -12.466130    -0.156413     2.915495
Fe    -11.242204     8.904953    -3.787913
Fe     -0.583140     6.943733   -11.149810
Fe      3.104205     6.477939    -3.257586
Fe     -6.173090    -5.897027   -10.277985
Fe     -9.778720    12.078633    -4.872040
Fe    -12.423606    -5.157681     5.085025
Fe     -8.684428     6.142200    -7.156861
Fe     -8.854364    -6.762259    -5.034678
Fe    -12.661417    -1.543657     7.400237
Fe    -10.506815     6.457699    -7.615166
Fe    -15.551289     7.950322    -4.527489
Fe    -10.397939    -3.464236    -9.756458
Fe    -14.674981     4.193270    -6.714209
Fe    -11.885745    -2.924734     5.153491
Fe     -8.164163     3.818236    -2.616596
Fe     -6.363282     6.125841    -9.864804
Fe      9.384503     4.340208    -5.307159
Fe     -3.728648     4.851815    -8.256781
Fe      8.598875    11.194427    -5.123038
Fe     -4.850394     6.657760    -7.533204
Fe      2.585592     7.875150    -2.552295
Fe     -4.520618     9.385517   -10.682618
Fe      6.427409     9.884370    -3.231752
Fe     -4.919671     4.875777   -11.670515
Fe      4.413718    10.513047    -5.250129
Fe      1.492715     8.620091    -8.533211
Fe      5.498016     4.554430    -1.885171
Fe    -12.982320     5.787534    -8.979578
Fe    -10.252685    -2.246577    -6.892137
Fe    -13.965155    -1.601418     3.913870
Fe    -10.241765    10.882045    -5.687729
Fe     -3.921053     9.309164    -7.226948
Fe      5.068379     8.166825     1.067150
Fe     -7.301290    -4.241419    -9.124599
Fe     -9.054308    10.947253    -3.934385
Fe    -13.694933    -0.869763     8.955280
Fe     -7.147469     9.197286    -2.333124
Fe     -7.862881    -5.331695    -5.027693
Fe     -6.663720     6.397566    -3.588505
Fe    -14.043576     0.994399     3.042884
Fe     -9.641653     3.104509    -2.296846
Fe     -9.954661    -5.081639    -7.320030
Fe    -11.206428     4.985903    -7.496799
Fe    -14.319380     0.627903     8.604189
Fe     -9.377590     9.212169    -0.350328
Fe      0.252772     7.234478   -13.896559
Fe      6.376727    10.371510    -7.479485
Fe     -6.314103     4.241351   -11.619116
Fe      5.030725     9.808040     0.644820
Fe     -5.630941     7.310019    -8.996383
Fe      9.280446     9.604763    -5.464506
Fe      1.782512     3.670715   -10.506685
Fe      4.283130    11.558345    -3.434918
Fe     -2.102948     7.045342    -7.524834
Fe      4.953434     4.621413    -5.043634
Fe      7.420015     3.032887     6.626764
Fe     -5.387809     9.598527    12.407317
Fe    -11.875136    -5.934232    -5.542109
Fe     -8.222075     6.757121    -3.284176
Fe    -10.075941    -3.351974     5.235650
Fe    -14.401411     4.793635    -1.051801
Fe      0.294933     3.268850   -13.333597
Fe      2.889311     8.992900    -1.599322
Fe    -11.957644     3.220013    -7.875020
Fe     -9.126084    -3.503822    -6.234461
Fe    -12.205707     2.851648     5.123825
Fe    -12.614535     6.893738     0.425450
Fe     -5.879832    -8.046742    -7.720942
Fe    -12.318765     9.828950    -0.301725
Fe    -14.960549     2.150764     5.760157
Fe    -13.587030     4.256737    -8.333934
Fe     -8.313955    -6.316112    -3.251183
Fe    -10.833654     8.166305    -7.006168
Fe    -12.156574    -0.810207     9.677655
Fe    -12.500864     5.291090    -1.793094
Fe     -3.009114     5.052801    -5.986181
Fe      7.259279     6.089046    -6.838220
Fe      1.831665     7.584817   -11.164078
Fe      6.838712    13.090257    -2.534014
Fe     -2.810900    10.162593    -7.981354
Fe      9.161580    10.178935     1.657322
Fe     -4.561264     7.508999   -11.044385
Fe      4.565261     9.836028    -3.595251
Fe     -2.676940     5.097008   -13.482565
Fe      6.224024     6.632953    -3.104299
Fe      0.641723     5.286052    -8.963516
Fe      4.323699     5.907271    -0.841127
Fe      9.888750     2.054415     5.856682
Fe      0.163513     5.560189     9.468845
Fe      3.245805    -0.933646     2.723751
Fe      4.563856     2.209781    -1.967618
Fe     -5.647636    -6.989519    -9.247951
Fe     -9.383763     7.694389     0.008691
Fe    -11.370241    -1.619222     2.689622
Fe    -10.548951     5.107062    -4.647738
Fe     -5.349717     3.256043   -12.399420
Fe      6.456518     3.533844    -3.338950
Fe    -10.725571    -3.194188    -4.972601
Fe    -10.851256     1.969792     4.516924
Fe     -9.829157     8.416634    -8.337419
Fe    -14.746183     6.603783    -3.466627
Fe     -7.194103    -7.470849    -8.572722
Fe    -14.949942     7.606511    -6.398239
Fe    -14.117326    -2.289031     7.862864
Fe    -10.947240     9.635571    -6.243686
Fe    -11.537968     3.924093    -3.233089
Fe    -11.589605    -5.595444    -7.183374
Fe    -11.426901    -4.083790     4.354168
Fe     -6.629275     8.781943    -5.161321
Fe     -3.668431    10.366816    -9.212002
Fe      9.046633     6.575585    -0.257112
Fe     -5.643828     8.446160   -11.812436
Fe      6.009884     6.846303     1.696952
Fe      2.429068     8.810268   -11.622282
Fe      2.893951     9.417007    -3.455928
Fe     -2.947676     8.999782   -13.341131
Fe      7.026388     3.601930    -1.612869
Fe     -1.560841     9.431112    -7.296610
Fe      3.924609    10.295784    -0.956932
Fe      2.155839     6.498877    -8.837480
Fe      8.166952    12.105584    -3.788814
Fe      7.609108     0.289151    -4.304089
Fe    -13.053486     6.309405    -4.208949
Fe     -5.766714    -2.545862    -7.530920
Fe    -13.136173     0.055133     4.225811
Fe    -15.728000     4.282365    -3.608309
Fe     -2.871918     9.324702    -9.910527
Fe      6.742128    11.829378     0.303795
Fe     -7.722504    -6.719581    -6.501527
Fe    -13.599736    10.219998    -6.035568
Fe    -14.789352    -0.239518     3.941367
Fe    -10.152992     6.982093    -9.282755
Fe    -12.152648     6.264707    -7.469495
Fe     -4.545604    -6.890268    -5.377645
Fe    -10.392947    -2.534353     3.804198
Fe    -14.314477     7.508895    -0.724817
Fe    -11.353144    -4.330204    -8.666033
Fe    -13.390645    11.281459    -2.710675
Fe    -15.663159    -1.665116     5.197513
Fe    -10.292044     4.627930    -2.337792
Fe     -5.601268     8.454305    -9.943113
Fe      7.720127     6.748850     2.490829
Fe     -0.303313     4.940071   -12.664034
Fe      4.567300     7.123577    -2.440609
Fe      0.727076     9.965391   -11.074646
Fe     10.083399     4.430360    -0.789887
Fe     -5.762909     5.460941   -12.854306
Fe      6.431725     6.499576    -5.465898
Fe     -1.610422     5.960834   -12.404068
Fe     10.039785     8.800822    -4.102220
Fe     -1.496809     4.143383    -6.222832
Fe      8.462890    11.588834    -0.729039
Fe     -0.852128     9.228107     3.328815
Fe     -1.411291    10.332208     5.486787
Fe     -7.196596     8.790334    11.643268
Fe     -4.877950    -8.465322    -3.123945
Fe     -6.780988    13.610148    -9.901106
Fe     -4.956647    12.475669   -10.972995
Fe     -0.497084     4.485982    14.313603
Fe     -5.318039    17.586015    -1.478032
Fe     -0.489725     4.409578    12.416867
Fe    -11.040062     8.294567     4.974299
Fe    -10.419213     6.869080     3.143161
Fe    -11.807705     6.831377     3.995143
Fe     -2.528772    -0.631704     2.924726
Fe     -1.187241    -1.564695     3.317485
Fe      5.280446     6.202971   -11.383492
Fe     -5.407835     9.601431     4.823896
Fe     -7.168976     7.442888     1.920688
Fe     -6.553010    14.547257     4.412252
Fe     -8.034090    11.944376     1.365290
Fe    -10.409629    -6.009977     1.696669
Fe      4.007770     3.443634   -13.302063
Fe      1.367676    -5.209935     3.928600
Fe     -4.685305    11.047754     4.953626
Fe     -5.441615     5.085445     9.428784
Fe     -5.629020     2.772775     4.276775
Fe      0.994381     7.382007     3.495153
Fe    -10.648004    14.804202     0.763937
Fe     -6.468756     9.536795     1.215504
Fe     -1.451891    17.176249     0.188070
Fe      6.739859    -4.415902     4.485582
Fe     -5.774263     7.735162    12.104991
Fe    -12.672167     7.858769     2.800458
Fe     -4.124964    10.232254    13.044244
Fe    -13.972986     9.282029     3.434604
Fe    -13.591540     9.765042     6.849882
Fe    -15.023629    10.308010     3.033359
Fe     -7.322095     0.026344     4.252572
Fe    -11.519421     0.434320    -8.443086
Fe     -3.256361     9.132071     1.135428
Fe     -4.944568    10.141458     0.966066
Fe     -7.294418    -3.443497     5.439311
Fe     -8.972563    -9.260590     1.556699
Fe      3.909125     0.565753     5.714847
Fe    -13.831561    -5.091458     0.482532
Fe    -13.002717    -6.477801     0.390215
Fe     -0.144414    -2.227440    -1.257693
Fe     -0.563751     0.609319     8.008651
Fe     -7.946180    12.178577     5.563763
Fe      2.815393     4.356115    11.684823
Fe      5.093630     1.189937     8.220572
Fe      4.355199     2.216487     8.631785
Fe      4.114463     2.833248    -8.298950
Fe      6.727510     6.292039   -10.668625
Fe      6.145277     6.691344    -9.468204
Fe     -5.812023     1.012344    -8.678237
Fe     -6.194983     0.362470    -7.223136
Fe     -5.865056    -0.390996    -8.796250
Fe     -4.972798     0.196315    -5.795507
Fe     -5.077624    -0.650524   -10.126733
Fe     -3.748066    12.494057    -3.642366
Fe      2.323903     0.776119    -3.713895
Fe     -1.404758    14.423828    10.328256
Fe      3.766392    -6.585730    -5.890475
Fe     -2.899502    -3.298253    -7.853446
Fe     -6.270127    -2.675744    12.870526
Fe    -12.847868     5.091362     8.210741
Fe    -13.424174     2.839481     6.231470
Fe      2.603101    -1.711733     5.420195
Fe      6.167207    -2.945139     7.344594
Fe     -2.967285     8.408651     3.690099
Fe      5.352413     1.419165    -4.046538
Fe    -10.378997     5.238106     4.993313
Fe     -8.285924     3.204323    12.351769
Fe     -2.268960     4.043760    -2.925990
Fe      0.384282     3.244900    -0.621460
Fe    -12.432277    11.170296     7.140262
Fe     -9.198295    -6.490067    -9.004872
Fe     -0.776688    15.871944     1.482904
Fe     -3.758017    14.134388     2.598759
Fe      1.392452     4.409163     3.217447
Fe     -0.109549     6.048214    -1.053281
Fe    -11.926534    13.574487    -0.956210
Fe      5.192106    -5.631150    -5.195484
Fe      3.611574    -2.464215    -1.174477
Fe     -2.838719     0.894852    -4.597894
Fe      0.595389    10.085233    -0.949950
Fe      1.454197    -5.477213     1.480727
Fe     -5.294373     8.159684     0.784175
Fe      0.196644    -0.153163     5.725756
Fe      3.961622     4.353975   -12.381637
Fe      2.729951    -6.746843    -3.428813
Fe      9.343491     2.516603     4.045238
Fe    -10.865575     8.060557     9.433227
Fe     -2.808932    11.808354     2.091547
Fe     -8.123492    12.400065    10.303165
Fe     -5.716745    12.577451     8.915215
Fe     -5.749140    13.951977     9.754431
Fe     -6.348334    13.361738     7.501913
Fe     -8.533409    11.474783     8.351811
Fe     -9.189277    13.012934     8.605558
Fe     -8.236610    13.839127     7.743239
Fe     -6.568997    12.934772    10.539414
Fe      0.211141    13.514370    -7.912525
Fe     -3.043027    17.258073     4.639879
Fe      0.071281     0.171715     2.048898
Fe     -6.331646    16.630047    -0.693110
Fe     -9.379030    -0.982903    -1.390355
Fe      4.279293    13.810708    -5.515858
Fe     -7.514668    13.938685    -5.411638
Fe      2.884678    13.800236    -5.167740
Fe     -7.411636    16.366689    -3.942445
Fe     -4.343733    -3.964955    -1.283842
Fe     -2.779771    16.786992    -4.758660
Fe     -5.113078    13.645533    -1.265800
Fe     -3.515749    15.800637    -3.003873
Fe      7.386253    -3.572814    -2.704682
Fe      4.963454    -4.115897    -2.719386
Fe      6.026799    -2.756607    -3.174374
Fe     -9.034262    -6.272262     9.485750
Fe      1.111459    12.400712    -6.944506
Fe     -0.488875     3.725744     6.816658
Fe     -0.317702    13.529353    -9.546185
Fe     -2.668586    -1.217971    -4.268287
Fe     -7.423210    -0.735047     9.010214
Fe     -4.260450    15.345635     7.732360
Fe      4.296882     4.236983    -7.803639
Fe      1.836708     6.806510     5.428359
Fe    -12.418970    12.685006     0.594382
Fe      4.542068     5.407719   -10.134985
Fe      6.063547    11.247369     8.399477
Fe      1.518877     0.897559     1.053925
Fe      4.161351    -1.152496     7.397647
Fe    -11.170358    14.769756     3.911842
Fe     -2.836039    13.893135    -8.259487
Fe     -9.102424    -4.515281    -0.562362
Fe     -8.111950    -4.658528     0.839945
Fe    -10.425172    11.710215    -9.573154
Fe      1.910968    -4.778862     6.595922
Fe    -10.321098    13.982236    -0.510033
Fe     -3.666771    14.540040     6.780033
Fe    -10.859890     5.255680     8.003774
Fe    -12.826802     6.149404     7.077831
Fe      4.172712    11.098234    -9.436737
Fe      6.100330    -4.228280    -6.952299
Fe      4.019825    -2.352591    -9.035533
Fe      5.843708    -2.004059    -9.528972
Fe      4.774174    -3.236099    -9.999801
Fe     -8.319814    -6.869308     2.666963
Fe     -8.055079    -5.361726     3.179764
Fe     -5.116457    -4.051283    12.449762
Fe     -4.152235    -3.013498    13.122931
Fe     -8.914151    13.225749     2.305212
Fe     -4.790644    -2.249032    -1.573337
Fe    -12.038959    -6.089804     2.726457
Fe     -2.683614    -8.227237    -1.007530
Fe      1.983041    -4.254255     2.412218
Fe      3.366617    -0.876002    -4.164061
Fe      0.102702    14.971374     7.885555
Fe     -2.820199    13.685260    10.621141
Fe      3.732249     1.937591    11.383708
Fe      5.756402    -0.678035    10.973905
Fe    -14.239457    -1.128072     0.153692
Fe      2.031142     0.777500     8.925239
Fe     -1.577166     5.050309     3.850909
Fe      4.777629    -1.272963    -3.416121
Fe     -7.101649    -9.745907     3.664286
Fe     -9.571598    -8.327894     2.600680
Fe     -5.887914    11.377260   -11.368428
Fe     -7.723093    -7.751131    -1.239664
Fe      3.646474     0.751399    -9.862368
Fe     -3.301977    -0.713617    -6.043377
Fe    -14.306458    10.679482     5.856075
Fe    -11.845176     9.976329     6.233220
Fe     -6.989265     6.365118     8.664553
Fe      8.340490    -2.890517     1.651426
Fe      1.301908     5.992038     2.451121
Fe     -1.175620    10.295544     7.034124
Fe     -4.865965    -1.718486    13.064976
Fe     -6.595710    -4.046710    11.946894
Fe     -6.149187    -2.819589    10.642792
Fe    -11.382145    13.871535     5.412557
Fe     -4.391832    16.000427    -7.698819
Fe     -9.307839     2.983571    10.755322
Fe     -2.638406     2.874078     5.977075
Fe      3.159882     1.337585    -6.815602
Fe      3.667672    -0.466604    -7.875532
Fe     -9.784022     4.032257    -0.801565
Fe     -8.081528     8.374788    -3.517690
Fe    -14.302632    -3.081318    -4.555648
Fe      4.705419    -6.635897    -0.537202
Fe     -0.918345    13.758371     7.609988
Fe      3.313996    -1.972149     0.192245
Fe     -7.148034     2.755809     2.103809
Fe    -14.976983     9.392724    -3.748504
Fe     -5.749989     0.075889    -1.210949
Fe      0.268855    10.924272    11.077701
Fe     -8.624729     0.297279    12.173438
Fe     -1.928282    15.301176    -4.462943
Fe    -13.118247    11.832459     5.821270
Fe      0.340715    -2.510986     2.684868
Fe      0.279053    10.149255    12.880608
Fe     -2.050919   -10.322269     1.192505
Fe    -10.162389     0.007713    11.250564
Fe     -2.666040    14.199970     1.660938
Fe      6.945647     3.339873   -10.285985
Fe     -0.465789    -8.902127     6.439147
Fe     -6.099322    14.653436     8.446152
Fe      9.697136     3.677169     3.243234
Fe    -13.127639     5.062120    10.030824
Fe     -1.491104    10.328549    10.995068
Fe     -4.572927    17.284133     2.257227
Fe      6.085358     4.680496     8.176965
Fe     -7.530333    -3.135387    11.358703
Fe      5.863168     0.226391    -2.868783
Fe      3.372970    15.260211    -3.754084
Fe     -0.540938     8.800212    13.446157
Fe     -6.706291    17.085013    -2.405546
Fe      1.315066     8.444580    11.566174
Fe     -6.795366    -9.186540    -0.660987
Fe    -12.730314    -1.477121    -0.116712
Fe      5.212961     9.231725     9.681613
Fe      6.447418     9.163277    10.335661
Fe    -12.278710    -0.197131     0.867832
Fe      5.624096     9.387744     7.973357
Fe      3.517332    11.574230    10.552177
Fe     -6.204999    -7.876677     0.102305
Fe    -13.546347     0.606121     0.538146
Fe     -4.490944    -7.851189    -1.679983
Fe      6.275886     7.926038     8.661215
Fe      3.378484     9.068673    10.921441
Fe    -11.072343     2.005037     1.640372
Fe      4.615329    10.856630     8.199709
Fe      4.416562     7.759818    10.518378
Fe    -13.840821     2.446070     0.351900
Fe     -5.330418    -9.237808    -1.177901
Fe      6.783796     9.795314     8.882592
Fe      4.603559    12.057384     9.277870
Fe      2.775474    10.461986    10.013381
Fe     -9.803388     1.187264     1.252124
Fe    -14.025323    -0.120828    -0.980530
Fe    -12.058450    -6.778208    -1.739204
Fe      4.289407    10.302235    11.191358
Fe      3.214493    14.722581    -2.313166
Fe      5.314817    -4.707515     2.244370
Fe      5.352076    -2.531884     8.305634
Fe      2.803860    -0.674153     6.761720
Fe     -4.535196    17.100198     3.753072
Fe      4.889599     0.895036    12.579852
Fe      1.736731     6.531381     9.771856
Fe      3.756134     7.975156     3.700673
Fe      2.999302     5.402370     6.499021
Fe      1.652705     8.968152     5.888689
Fe      3.056278     3.640650     5.638761
Fe     -3.226375     7.693779     7.148283
Fe      1.159606     3.374607     6.378284
Fe     -0.480757     5.622460     5.085446
Fe      7.621487    -4.869608    -0.374473
Fe    -10.801490     8.553580     7.610062
Fe     -4.664695    13.239677    -9.922777
Fe     -9.920274     6.847634    12.054425
Fe     -8.223949     6.650833    12.137575
Fe     -9.080487     8.994190     9.956531
Fe      1.903458    12.392692    -5.200709
Fe    -11.104659    -0.741608     0.197734
Fe     -2.741758    13.645255    -2.364181
Fe    -14.948561     1.555930     0.910536
Fe    -12.241825    -0.378132    -1.255368
Fe    -13.104835     1.020833    -1.228228
Fe    -14.929612     1.551991    -0.626087
Fe    -12.828087     2.193424     1.432162
Fe     -1.852690    17.700078     1.621166
Fe     -1.432093    17.677139     3.202191
Fe     -2.240275    15.050750     3.945237
Fe      1.246625    -7.301793    -2.605876
Fe     -4.876132    16.148899     4.744274
Fe     -5.437037     5.055360   -14.973244
Fe     -4.611333     2.644452   -15.116248
Fe     -6.936711     4.738545   -14.158614
Fe     -6.013449     3.152821   -14.498392
Fe     -5.266832    11.651446    -2.988117
Fe     -8.870771    14.747520    -3.436021
Fe     -4.366614    13.913865     0.069656
Fe    -13.128507    -5.694782    -2.468047
Fe      2.544464     6.688225     3.326617
Fe      4.420801    16.195581     3.476267
Fe    -13.414716     7.994392     9.069926
Fe     -7.995889    -3.368536     0.229757
Fe    -10.070757     7.165302     8.080763
Fe      3.121143    -4.878340     1.650413
Fe    -14.930943    -1.730731    -5.716598
Fe     -4.939804     8.652127    13.438588
Fe    -10.001442    12.771645     6.038611
Fe      0.636342     1.083454    12.736301
Fe     -9.628523    15.037947     5.908092
Fe     -2.810803    15.340738    -7.565423
Fe      3.957272     4.327216     2.301572
Fe     -0.653412     5.140067    -3.374484
Fe     -6.740212     0.478921    10.845965
Fe      4.662278     5.478042     2.430607
Fe     -6.092861    12.843631    -2.452684
Fe     -1.820426    12.754352     8.987810
Fe      3.583965     0.800328    -4.602741
Fe      3.126600    -0.307876    -2.745501
Fe     -7.992721    14.975265     4.504177
Fe     -8.368833    12.766843     4.003940
Fe     -8.601474    10.865936     5.490251
Fe     -6.419955    11.745348     1.808458
Fe     -6.863101    11.240176     5.168109
Fe     -9.981123    12.371280     3.723019
Fe     -7.665907    14.214066     3.147218
Fe     -5.678809    13.272868     3.532927
Fe     -9.387783    11.709672     2.402780
Fe     -6.768815    13.132940     2.590817
Fe     -7.985779    13.615904     5.276573
Fe     -8.195941    10.523815     2.233122
Fe     -2.533768    15.601014     7.121229
Fe      1.819201     5.701902    12.465439
Fe    -12.450327     8.915166     8.408346
Fe     -2.724584    -2.417310    -0.805724
Fe     -3.193453    -2.753111    -2.186959
Fe     -6.461203    -1.588598     1.222489
Fe     -4.105014     3.307508    14.700254
Fe    -11.205069    13.539950     1.700681
Fe     -0.770308    14.867617    -7.525107
Fe     -0.759422     0.748673    14.322278
Fe     -0.912869     0.186659    13.051441
Fe      1.447305    -1.110962    -1.713924
Fe     -7.561152    -2.296560     8.950816
Fe     -1.959487     8.827332     7.484314
Fe     -3.107775    17.437156    -3.124654
Fe     -3.123827    14.089315     9.306663
Fe      2.102655     5.204195     5.210035
Fe    -16.745403     4.639969     0.298345
Fe     -8.043393     0.410188    13.985302
Fe     -9.823104     8.499076     2.679931
Fe     -0.569299    10.050087     8.416463
Fe      4.876074     2.423314    10.428792
Fe      4.502897    -0.529908    11.907199
Fe      3.986303    -7.088728    -2.919424
Fe     -6.853847     8.468369     7.662697
Fe     -1.866922     6.596248    -0.930512
Fe      0.501153     6.368334    13.555556
Fe     -1.440168     7.004653    13.517482
Fe    -15.487373    -3.805590    -2.672432
Fe      3.101031    -3.183915     1.686104
Fe      6.327107     1.823852    -0.020559
Fe      5.983779     1.427897    -1.431283
Fe      7.257579    13.899289     1.907211
Fe      2.757230     4.403079     0.958791
Fe      0.626313    15.965787    -3.409028
Fe     -2.531635     6.529244     6.391775
Fe      4.818887     7.754549     6.745579
Fe      5.152794     0.356939    -0.464527
Fe     -9.643517     1.348653    10.505407
Fe     -8.660781     4.560523    13.135623
Fe      5.203118    -0.061576    -4.287642
Fe    -13.577064    -2.937002    -2.742731
Fe     -7.521657    -6.496507     0.194233
Fe      4.642991    -0.486098    -9.884410
Fe    -12.263933    -0.739183    -4.565391
Fe     -4.098420    15.012381     3.855983
Fe      0.628192    12.943205    -0.293164
Fe      2.948207    15.773190     6.446171
Fe     -8.233604     4.432084     8.521729
Fe      4.857621     0.887867    -6.108792
Fe     -8.860506     8.098104    11.929293
Fe     -1.256640     2.422320    -2.022369
Fe     -3.241438    14.593039    -1.325413
Fe     -1.766376    10.514440     0.692228
Fe      4.057374    -4.297334    -9.081128
Fe      8.084566     2.907557     4.649120
Fe    -13.107079     6.700924     9.861022
Fe     -8.247281    11.341275    -9.735436
Fe     -5.539669     6.642673    14.127275
Fe     -6.982204     0.848334     1.653870
Fe     -6.867851    -0.187677     2.671189
Fe      1.032526    15.551841    -6.704789
Fe     -6.434883    11.687799    -7.776963
Fe     -6.453562    13.072745    -8.565480
Fe     -5.264657    15.067284     0.073743
Fe     -5.347797    14.716644    -8.367483
Fe     -5.996326    -9.483462    -2.888251
Fe     -1.553302    12.410609    -0.439976
Fe     -6.238330    -2.719641    -0.560815
Fe     -3.704786    -0.747212     0.232223
Fe     -6.013020    -3.258236     1.008626
Fe     -3.075255    -2.753165     0.678824
Fe     -5.289132    -4.358357    -0.011659
Fe      8.946899    -0.719903     4.572567
Fe     -0.455719    13.144658    -1.448443
Fe      5.675463    10.492071     4.026358
Fe      4.988717    11.486994     3.140356
Fe     -5.853247     1.871628    13.891577
Fe     -6.710347    12.539752   -10.899767
Fe     -7.877706    11.526784   -11.219224
Fe     -7.850719     9.843410   -10.701975
Fe     -9.411835    -4.824444     9.673277
Fe      5.887907    -6.006622    -1.855672
Fe      6.407042    -3.707578    -0.552064
Fe     -1.602084     9.741109    12.932359
Fe      5.059483    -6.167446    -3.774015
Fe     -6.657537    14.923089    -7.507708
Fe      4.928989     8.787608    11.516857
Fe      1.117224    11.785941    -2.536182
Fe     -5.123016     7.503195    10.058187
Fe     -5.343877     5.572831     2.533989
Fe      5.204412    -1.165286     8.289331
Fe     -3.271184    -0.699974    13.916436
Fe    -11.609297    -1.229280    -3.273676
Fe     -9.640001    -6.339606     6.298173
Fe      6.017940    -1.163893     2.964122
Fe     -8.168300    -6.789118     6.412826
Fe      8.662093     4.820427     5.209320
Fe    -12.031590     7.839601    10.496486
Fe     -7.978305    -1.537144    -2.105091
Fe     -8.233621    -1.021828    -0.205007
Fe     -7.424367     3.283664     0.544793
Fe     -9.376361    -1.271164    -2.896590
Fe    -11.214562    -7.458592    -0.779291
Fe     -6.037882     2.492657    -1.523218
Fe     -8.863296    -1.554764     0.993108
Fe    -13.630949    -6.056417    -1.056728
Fe     -6.177172     3.459012    -0.076240
Fe     -3.319906     0.943981     2.529287
Fe      2.680633    16.984894     2.158982
Fe     -1.513736    -9.465347    -2.206864
Fe     -1.580072    12.867878     3.480391
Fe    -16.977605     6.133623     0.498542
Fe      2.021173    15.523563     4.759376
Fe      3.808824     0.437631    10.474852
Fe      6.239964     1.346547    11.718883
Fe      6.059895    -0.079799     9.640259
Fe      3.511789     1.510928    13.038400
Fe      4.857643     2.689760    12.396889
Fe      3.857318     2.128274    -4.370563
Fe      0.774950    13.171082     8.405217
Fe      0.332898    14.651828     9.930670
Fe     -1.481761   -10.087769     4.058442
Fe     -6.324679    -3.269305     6.727940
Fe     -8.677244    -9.108461     3.849038
Fe      5.306457     0.305707     6.857858
Fe     -3.263087    -4.082443    -0.409135
Fe     -4.383254    -2.865325     0.122335
Fe     -5.441191    -0.299018    -2.543150
Fe    -11.336362     6.325231     7.026264
Fe    -13.879001     7.231114     7.794695
Fe     -0.380715    17.378897     1.413424
Fe      2.010671    13.254818     4.485081
Fe      1.425237    11.060491     6.260444
Fe     -4.055291     1.707577     4.358876
Fe     -3.253135     0.348069     4.627415
Fe     -8.756401    -6.433873    -0.999967
Fe      4.476447    -0.638360   -11.160747
Fe      2.717232    -4.851930     0.274394
Fe      1.427243    17.114691    -2.615719
Fe      3.937914    15.823288     1.758917
Fe      2.845378    16.346393    -2.477393
Fe      0.896409    16.193522    -1.825614
Fe      1.419713    15.543661     6.436722
Fe     -1.745036     2.997250     9.944149
Fe     -1.365430     6.531488     9.323193
Fe      2.329537     4.257559     7.145304
Fe     -0.379855     4.992897     8.013444
Fe      2.102012     6.577739     7.094838
Fe      0.898557     9.910222     2.884934
Fe     -0.893434     6.501208     2.593565
Fe    -10.499450     2.940174    12.952085
Fe     -6.905963     3.943358    11.727053
Fe     -6.982421     3.358154    13.431262
Fe     -9.222193     1.558421    13.592997
Fe     -6.691715    -0.506874    12.740268
Fe     -7.398898     2.159733    14.377858
Fe     -8.472050     4.262774    11.200146
Fe     -8.144478    -1.049181    13.095640
Fe     -6.143575     0.286381    14.069064
Fe     -9.050333    -1.422807    11.467819
Fe     -5.930656     0.759193    12.273278
Fe     -6.647836     1.990991    10.491072
Fe     -5.015198    14.703684    -4.409210
Fe     -0.384491    -4.237301    -5.970648
Fe     -5.872949    12.956821    -5.489096
Fe     -4.262180    -0.553934    -7.543391
Fe     -3.945318    -2.091668     3.873605
Fe     -7.597502    13.180771    -2.088758
Fe     -6.544274    14.565272    -4.163495
Fe     -3.902294    13.563270    -5.360761
Fe     -2.098092    16.470015    -1.898917
Fe     -8.564007    14.863695    -1.928734
Fe     -4.524964    16.043991    -1.901350
Fe     -5.737082    15.230774    -1.365218
Fe      6.138190    -2.136549     4.084197
Fe     -6.993456    14.462307    -1.454048
Fe      4.376652    -2.311620     4.455370
Fe     -5.681646    16.072120    -3.230034
Fe     -3.637590    15.096176    -4.311155
Fe    -13.967856    -1.419815    -2.788281
Fe     -6.978540    15.750089    -5.486669
Fe     -8.391243    15.152083    -4.771318
Fe     -4.329410    13.605369    -3.191167
Fe     -4.813092    12.215552    -4.751030
Fe      9.206924     6.930162     5.229677
Fe     -6.398495    13.153680     5.180265
Fe     -3.644697    -7.251677     3.243339
Fe    -10.434047     6.253808     9.413791
Fe     -3.029619    17.484095     3.058558
Fe    -16.055343    -2.409885    -1.034574
Fe      4.353354    -7.224984     1.328401
Fe      3.402496    -7.622319     2.437584
Fe      1.194758    11.036970     4.449794
Fe     -0.925902     5.553450     6.638350
Fe    -11.806271     9.346037     9.787276
Fe     -4.289339     2.172596     1.890937
Fe     -1.588480     8.667755     8.967972
Fe    -12.943801    -3.399717    -1.171539
Fe     -0.066168     5.166206     3.151981
Fe      0.298432     9.223345    -3.956344
Fe      5.007181    16.114334     0.011904
Fe      8.879440    10.588049     4.691659
Fe      6.353790    15.198554    -1.024222
Fe      8.021994    11.722141     5.696521
Fe      8.027678    -2.316191     6.190113
Fe      4.758477    -7.241137     3.398439
Fe     -6.100745    11.900867     3.875066
Fe     -8.330297    16.252872    -2.733470
Fe     -1.216361     3.571826     1.612770
Fe     -1.076480    16.242743     3.059210
Fe    -13.080420    -3.578390    -3.918203
Fe     -0.705347     6.086835    14.471771
Fe     -9.111457     5.283048     2.717774
Fe    -12.184954     1.874545    -0.198988
Fe    -16.604018     7.689358     1.174416
Fe     -9.269319    14.302632     3.274976
Fe     -1.350131    -0.249688     0.369702
Fe      2.669238    -0.786511    -0.571000
Fe     -7.144682     4.869361     6.911319
Fe      7.746129     3.220135    -8.835990
Fe      1.582089     4.865201    13.991044
Fe     -4.048381    -9.668370    -3.689518
Fe     -3.425092    16.317719     1.435838
Fe      0.630414     4.507694     5.419790
Fe      2.124902    16.071345    -4.119199
Fe     -8.995125     2.970972     2.703134
Fe    -11.750015     6.250850    10.869252
Fe     -9.769207    -0.577488    12.711658
Fe     -8.930793    15.446942     0.955180
Fe      6.444484     3.935312    -8.416588
Fe     -3.883972     1.412259     8.329349
Fe     -2.430188     0.994008    14.165638
Fe     -8.729412    14.108756     0.285128
Fe     -0.239157    -8.323263     0.932090
Fe      6.141302     1.897141   -10.696111
Fe     -1.348781     2.100187    13.765033
Fe     -5.149140     0.370847     4.472424
Fe     -5.842246     9.990206     2.595787
Fe      1.051662    -0.263282   -11.297147
Fe      1.778291    -3.044276     4.088826
Fe      2.788061    -5.248837     3.848461
Fe      5.127893     6.888099     5.220071
Fe     -3.824290     4.019374    13.348342
Fe     -6.539199     5.495185    14.177405
Fe     -6.298013     5.897191    12.694830
Fe      4.710417     8.452439     5.183876
Fe     -6.374666    10.968010    11.093828
Fe      1.581304     8.250320     9.211734
Fe      1.826111     3.054700    13.111490
Fe      6.564767     4.653773   -11.060032
Fe      4.412189     3.041616   -10.308831
Fe      2.477825    10.200484     5.405965
Fe     -0.558444    13.154612    11.202269
Fe      0.803820     3.260580    14.099385
Fe      0.346423    -8.035324    -1.129018
Fe     -4.386866    -0.699291     5.358144
Fe     -1.314031    14.592575     2.488950
Fe     -3.534022    17.521885    -1.575165
Fe      0.592422     2.959434    -2.365907
Fe     -7.170974    11.836624     7.809047
Fe     -7.072287    -5.823337     8.737971
Fe     -3.673637     8.711952    12.391697
Fe     -6.164226    10.393614     9.438752
Fe     -6.824305     8.683298    13.155415
Fe     -4.182877     0.226495    -1.521901
Fe      4.758685    -0.626659    -2.024288
Fe      1.428511     4.975363     8.908256
Fe     -2.702155     6.454774     3.627446
Fe      3.551227     6.615599     5.612094
Fe    -10.974988    -6.701140     3.374934
Fe    -12.211736    -5.011724     1.806002
Fe     -1.029994     3.094610    11.207170
Fe      0.255520    -8.487657    -3.458824
Fe    -14.052130    -0.885218    -7.263878
Fe     -8.990441    -7.687697    -0.345960
Fe     -1.678717    -4.910919     4.064056
Fe      3.936762     0.555157   -11.410215
Fe     -3.244251    15.819017     4.928490
Fe     -0.857980     1.885825     9.432494
Fe     -3.993692    12.256984    -2.021479
Fe     -1.575924     8.683825    11.661396
Fe     -9.468759     8.423019   -11.289997
Fe     -1.289272     6.076763     0.338396
Fe     -9.077445     3.696631     4.598523
Fe      0.073345    -2.415015    -7.725032
Fe     -2.374814     5.723378    -2.343407
Fe     -8.581426     3.084225     5.957915
Fe      1.457442    10.736607    11.798529
Fe     -8.101025     1.728189    10.027780
Fe    -10.628503    -3.897599     0.009179
Fe      1.748649    -1.093044     1.057091
Fe      2.196203    -3.052768    -0.252978
Fe      6.693070     2.275608    10.216097
Fe      6.999406     0.803446    10.215570
Fe    -11.980929    14.146551     0.434736
Fe     -5.396179    -9.362338     7.388401
Fe     -4.205973     0.659556    12.003654
Fe     -7.476414    -0.812036    11.354161
Fe     -7.409053     3.344562    10.343140
Fe     -3.827430    -1.682411    10.885508
Fe     -4.706228    -2.577953     1.621488
Fe    -10.000252    -3.985293    -1.647666
Fe     -6.528453    -0.783471    -0.312595
Fe    -14.006313    -4.473265    -0.752975
Fe      0.465578     6.371831     6.717984
Fe     -3.894758     9.181292    10.603277
Fe      2.908715     5.112553     3.901681
Fe      2.985575     8.655581     7.714008
Fe     -2.001722    14.996464    -2.722453
Fe      5.128595     4.335325   -11.119490
Fe    -12.297470     9.507590     2.427956
Fe      3.986363     6.463124     4.160876
Fe     -6.984360    -1.715339     7.480526
Fe    -15.750784     9.840270     0.639000
Fe    -10.549408     4.060613     9.932967
Fe     -3.008004     2.918996    11.791409
Fe      0.723638    -8.684691     5.486070
Fe     -3.389149    -6.502402    -1.135897
Fe     -9.096161    -7.924990     4.962979
Fe     -2.155250    -9.308461     0.075043
Fe     -0.354099    -6.514543     1.713370
Fe     -5.833650    -6.110352    10.967032
Fe     -7.267160    -3.503492     3.425905
Fe      5.020831    -0.999208    -7.108809
Fe      9.326694     5.890463     7.445958
Fe     -8.324868    12.763861    -9.452231
Fe      8.292433     6.364060     8.670797
Fe    -10.786502     9.846795     2.380092
Fe     -9.059453    -5.893505     5.044360
Fe     -2.874374     6.166417     7.787597
Fe      2.042270    -3.505150    -8.237742
Fe     -1.782011    -4.236656    -5.012916
Fe     -8.821610     4.365499     6.471845
Fe     -1.864433    -1.985425    -9.445345
Fe     -2.967065    -4.056880   -10.756901
Fe     -1.573004    -4.173272    -8.855586
Fe     -1.491252    -5.320815    -6.959118
Fe     -3.214957    15.433958    -5.655869
Fe      0.784807    -3.071079    -5.740706
Fe     -4.950608    16.091609    -5.568888
Fe    -15.383163     0.166145     0.120327
Fe    -11.182111    -0.369554    -7.089130
Fe     -4.199475     7.668949    11.333247
Fe    -10.885672    14.501403    -1.698953
Fe      0.214365    11.244608     1.329863
Fe      0.211159    12.277064    -8.540389
Fe      2.192887     3.698396     4.334552
Fe      0.200015    10.036741     5.057452
Fe     -1.974457    12.522254    10.733930
Fe      0.910657     8.743448     4.347169
Fe     -5.889509     4.275140     6.580184
Fe     -4.642692    15.661639     2.528583
Fe      1.214675    16.633365    -0.271943
Fe     -4.158478    -3.639249    10.834304
Fe    -10.663532    -2.461936    -0.880439
Fe     -7.626056    10.106188    10.368182
Fe     -8.010571    -4.817733     7.200074
Fe      6.749060    -3.477145     3.232436
Fe     -2.597748     7.548705     8.633944
Fe      3.037064     7.943133     6.263703
Fe      4.294959     4.972623     4.927358
Fe     -1.809625     7.604758     3.085515
Fe     -0.598970    15.755274    -6.328951
Fe     -5.086795     9.030241     9.397288
Fe     -6.530702     7.582155    10.667324
Fe    -14.297704     0.011680    -3.731598
Fe    -16.759668     0.145858    -3.790000
Fe    -15.498818     0.975697    -7.106767
Fe    -16.596520     1.837034    -4.246313
Fe     -4.789677    -5.420499    10.187040
Fe     -1.915245     9.965608    -4.239284
Fe     -1.852096    12.033417    -4.045898
Fe    -15.423375     1.098890    -3.170505
Fe    -16.002257     1.763899    -5.798462
Fe    -15.770710    -1.341241    -4.282357
Fe    -13.716847    -0.331849    -5.657482
Fe    -16.101974    -0.522847    -2.622196
Fe    -14.297648     0.946805    -6.024494
Fe    -14.137516     0.633041    -7.735150
Fe    -16.405616     0.071602    -5.393066
Fe     -5.262870    10.124057     7.282622
Fe     -4.921526    17.499197    -3.057060
Fe      0.063918    -1.390130    -6.559449
Fe     -2.497419    -4.034352    -6.292399
Fe     -5.813023    -5.506264     6.226018
Fe     -2.331480    -8.267203     3.480247
Fe     -2.565120    -7.615489     6.793545
Fe     -5.072620    -6.462348     6.861188
Fe      1.163727     0.954232    11.311925
Fe      2.914718     3.931390    13.422168
Fe      6.113379     5.124404    -9.254577
Fe      1.667035    14.050421     9.273324
Fe    -13.690276     8.381007     5.541269
Fe    -11.541351    11.248558     5.566520
Fe      1.659844    12.987107    -3.255217
Fe      8.291169    -2.461826     3.092765
Fe    -12.402498    11.178440     3.720144
Fe    -13.575398    12.266618     3.172909
Fe    -14.919005     8.985756     5.891121
Fe     -2.336489    -8.094515    -4.021828
Fe      5.477520    -3.091073     0.796562
Fe     -0.495708    -4.521876    -3.665994
Fe     -5.178095    11.930632    -1.007546
Fe      1.059158    13.033485    10.469576
Fe     -0.279141    12.251487     9.645306
Fe    -14.345744    11.271953     4.329588
Fe      6.005233    -5.354923     3.665444
Fe     -9.839786     9.064074     4.283181
Fe    -12.651740    12.442371     4.455674
Fe    -13.722192    10.965358     2.508238
Fe    -15.151907     9.457444     4.415255
Fe    -12.659347     7.903172    -1.335805
Fe    -12.719031     8.986750    -8.129646
Fe     -9.360288     2.555853    -3.866275
Fe     -2.183501    15.247939     8.913760
Fe      8.952474     8.326678     5.458392
Fe    -12.672706     8.895261     4.728407
Fe     -0.245588    10.781856     3.717620
Fe      0.219703    -8.007736    -4.962122
Fe      1.146829    12.633875   -10.504490
Fe      2.935759    13.019481    -9.670499
Fe      1.336568    13.755069    -9.524072
Fe      1.917471    11.659915    -9.542915
Fe      3.149024    11.498807   -10.453588
Fe      3.139082    12.515937    -7.694699
Fe      2.402554    14.153016    -7.112881
Fe      2.945844    10.914353    -8.331355
Fe     -6.452419     4.689973     4.233076
Fe     -2.624479     0.798866     7.115803
Fe    -11.152280     4.175968     2.407570
Fe     -3.823076    -0.395512     7.666564
Fe     -0.871768    13.781578     0.531459
Fe     -1.834851     6.262465    11.902721
Fe     -4.303560    16.948888    -4.430495
Fe     -5.061466    12.065709    -8.835940
Fe     -8.045175    13.146707    -8.116476
Fe      1.612842     2.553519    10.898492
Fe     -0.130681     7.947973    11.999318
Fe      2.589982    -2.447716    -2.357030
Fe      1.191239    -2.788184    -1.670800
Fe     -5.351646     5.501681     5.715979
Fe     -2.090055    15.627280     0.840464
Fe     -9.733251    -7.019473     7.947440
Fe     -0.490006    10.758542    -0.135765
Fe     -6.996197    10.444242    -9.202621
Fe      6.090663     3.056960    11.462844
Fe      0.556342    15.567433    -5.363205
Fe     -3.111631     3.992818    -1.727174
Fe    -10.577195     0.913874    12.561880
Fe     -3.246435     7.461290     4.906179
Fe      3.744686    14.278194     7.344498
Fe     -4.516145    10.657059     2.469098
Fe     -3.606750     5.377332    12.199305
Fe      5.682415     3.016463   -11.575641
Fe     -5.005041    -1.037098     1.537701
Fe    -10.122103     6.545388     5.773697
Fe    -13.051263    -2.125192    -5.224213
Fe     -9.479829    -4.121906     1.079905
Fe      3.167642     5.337898    12.982117
Fe     -8.755738     0.454819    -8.557537
Fe      0.240011     3.957298    -3.492137
Fe     -7.062269     8.220166     4.636085
Fe      0.435640    -2.877902     0.144447
Fe      1.500286    14.483459    -8.313141
Fe     -0.012412     7.191278     9.652562
Fe     -6.381956     2.444667    12.062957
Fe     -3.270226    17.873769     1.311185
Fe      1.861560     9.504515    12.599600
Fe     -8.443160     7.638348     9.269637
Fe      3.326436    13.994128    -8.282923
Fe     -0.810562    11.439322    -5.182927
Fe     -0.171225    11.590674    -3.646771
Fe     -3.077673    10.472779    -3.250965
Fe     -8.127733    16.719583     2.676170
Fe     -8.863829     9.201505     7.186422
Fe      5.402831    10.825508    10.020794
Fe      6.164699     7.702289    10.213274
Fe      3.223607    11.604236     8.837711
Fe      2.300429    10.086131     7.200722
Fe      2.635357    -7.393443    -4.888584
Fe    -10.695615    13.533901     6.881810
Fe     -3.765623    14.839963    -8.931885
Fe     -9.301710     6.002733    10.877900
Fe      1.958627    -4.552326     8.275950
Fe      2.615419    -3.581669     7.280068
Fe     -2.506208    -4.206974     8.949418
Fe     -1.096137    -4.176913    10.586252
Fe     -5.848600    14.517084    -5.645843
Fe      1.662625    -5.242053    11.267387
Fe     -0.725590    -5.153120     9.380589
Fe      0.277553    -4.064777     7.599560
Fe      0.071055    -0.952560    10.760304
Fe      3.072486    -3.030448     8.752488
Fe      2.957594    -2.448945    11.317000
Fe     -0.530592    -6.732383     7.835136
Fe      1.211703    -2.801822     6.481075
Fe      1.107046    -7.175259     8.076456
Fe     -0.124703    -7.167798     9.284532
Fe     -0.842160    -1.393449     8.922003
Fe      2.973977    -1.641604     9.862185
Fe     -1.924629    -3.949171    12.110364
Fe      1.679238    -5.643536    -8.416269
Fe     -2.678537    13.917860    -4.136029
Fe      0.618931    -5.565316     8.572314
Fe      1.608865    -1.191518    10.557697
Fe     -5.994955    16.830578    -4.556204
Fe      0.451561    -4.330796    10.830859
Fe     -0.123164    -6.915490    -8.125168
Fe      1.757007    -4.488465    -9.576146
Fe      0.672059    -1.240729     9.086048
Fe     -1.198365    -2.188455     7.430525
Fe      1.929118    -4.767642     9.810930
Fe      1.739490    -1.903240    12.269004
Fe      0.502029    -5.858630    -9.548969
Fe     -6.953438    14.996888    -2.828358
Fe     -3.297262    15.951009    -0.917507
Fe     -7.738299    16.277469    -1.267404
Fe     -1.707694    16.608840    -3.408075
Fe     -7.668663    13.525449    -3.688849
Fe      4.032117    -3.003146    10.072492
Fe      3.289771    -5.549759     9.037899
Fe      0.356891    -5.479040    -5.685774
Fe     -0.472647    -3.162426    12.757310
Fe     -0.969641    11.055350    12.349029
Fe     -3.600654    13.015345    -0.760934
Fe      7.186041    -5.352910     2.442546
Fe      0.772796    -2.663151    11.069356
Fe      0.425704    -1.654464     7.328301
Fe      1.017521    -3.522078    12.439557
Fe      2.081261    -1.525837     8.524502
Fe      1.853772    -2.979896     9.864326
Fe      1.205108    -4.185002    -3.738034
Fe     -0.467758    -2.902325     6.256936
Fe      4.191911    -4.237840     8.594853
Fe      1.085291    -6.373589    -6.958860
Fe     -3.240218    -2.651651    -9.713455
Fe     -1.014800    -2.744027    -5.518030
Fe     -0.977970    -6.016743    -9.043401
Fe     -0.974783    -0.940454    -7.812238
Fe     -0.567958    -6.669378    -6.508999
Fe    -10.054896     0.809465    -7.593573
Fe     -1.502776    -1.482032    10.479076
Fe      3.380688    -4.396833    10.267833
Fe      0.437538    -4.292515     6.036403
Fe      1.774045    -6.436553     9.539715
Fe     -1.018829    -6.390843    10.618710
Fe      0.479085    -6.106261    10.550460
Fe      0.864936    -6.078547     6.782676
Fe     -0.340809    -2.551549    10.035432
Fe      1.200684    -2.767939     8.169103
Fe     -1.840566    -5.423456    11.514986
Fe      2.442506    -6.255162     7.888701
Fe     -8.787804    17.020924     1.006247
Fe      8.115936    -4.061450     3.152306
Fe     -5.139294     5.393961    11.545567
Fe     -1.829850    -6.768152     9.323710
Fe     -2.545462    -5.321307    10.137184
Fe     -2.169809    -2.471966     8.899708
Fe      3.607685    -5.044221     7.319579
Fe      0.129148    -4.137677    -8.841955
Fe     -2.234215    -3.280630    10.416521
Fe     -1.726247    -5.488796     8.303088
Fe     -2.494046    -5.522922   -10.264890
Fe     -0.256866    -4.862977    12.069336
Fe     -1.628553    -3.904326     7.434006
Fe      0.906049    -1.289183    -8.342406
Fe     -2.542945    -5.170800    -7.908552
Fe     -1.234752    -2.499810    11.648968
Fe      1.143302    -2.794093    -9.290765
Fe     -0.537845    -5.257688     6.987622
Fe      0.215101    -1.646395    12.354521
Fe      2.342826    -3.786080    11.519348
Fe     -0.826224    -3.268202     8.611223
Fe      2.686417     2.479066    -0.925104
Fe      5.461261     3.313649     7.702524
Fe      9.936618     4.676308     4.420699
Fe    -12.258935     7.749400     7.210522
Fe      3.090947    13.177344     5.965765
Fe      2.966522    -1.464279    -6.454234
Fe      4.905579     0.700121    -7.395045
Fe      4.537333    -1.535886    -5.788274
Fe      2.212186     0.201322    -7.169533
Fe      7.601491     4.869401    -9.583638
Fe     -2.975766     4.458187    14.691872
Fe     -4.377061     5.464614    14.899098
Fe     -6.298151    10.632558    12.646541
Fe     -7.798072    10.192492    11.948590
Fe     -4.919887    11.570863    11.788258
Fe      3.841358     2.074226   -12.948109
Fe     -4.237576    -8.329458     8.622024
Fe     -1.158726    13.644087     5.544933
Fe     -2.504626    13.319539     4.891182
Fe     -5.835812    -1.174847     9.020896
Fe      3.097182     1.783944     2.489445
Fe     -5.013285     0.547971     8.057146
Fe     -6.609948    13.670749     0.915760
Fe      1.421193    -8.959124     0.785674
Fe      5.055546     7.439079   -10.348104
Fe     -5.051851     2.451597     6.771603
Fe     -2.783605    -0.505835     6.042990
Fe    -11.835065     5.415115     9.414966
Fe     -9.870844     8.275008    11.023948
Fe     -4.380348     3.831573     4.014890
Fe      4.315004    12.574607    -8.652834
Fe     -6.731840    17.302611     2.344550
Fe      7.901932    -4.261045     1.241462
Fe      6.928819    -2.343336     1.251940
Fe      4.507344    -5.227236    -1.105636
Fe      7.184894    -5.173099    -1.761806
Fe     -1.648121    16.561895     4.604887
Fe     -3.248167     5.884639    13.735016
Fe     -6.162417    12.817723    -3.961796
Fe     -3.950215     7.012971    14.114294
Fe      3.216857    15.740551    -0.601565
Fe      5.211278     2.177923    -9.352120
Fe    -11.058896     9.915226     3.908023
Fe      3.415186    12.376228    -6.045962
Fe     -4.780177    16.645412    -0.269417
Fe     -3.070591    -4.267398    -9.257152
Fe    -11.189325     2.047312    11.486164
Fe    -10.859758    12.247662     0.929931
Fe     -4.327669     0.498440     6.486072
Fe    -10.839207     9.733779     8.630060
Fe     -0.911798     7.396979     6.608394
Fe     -9.001377    11.125459     4.082754
Fe      0.743280     6.774951     8.262268
Fe      4.758079     4.849271    10.658748
Fe     -2.051756     0.742182     5.573443
Fe     -4.009148    13.205445    -7.421560
Fe      3.051327    -8.257264    -0.919450
Fe     -8.438427     0.163375    10.396911
Fe     -7.209991     1.268612    13.017755
Fe     -9.697209     2.157857    12.010183
Fe    -10.126710     4.095479    12.160268
Fe      1.423204     8.071504     7.170530
Fe     -0.516252     0.678663     3.677313
Fe      1.639859    -7.654010     1.410737
Fe     -5.948895     1.033394     5.952958
Fe      1.163856    16.650583     3.431354
Fe      1.202805    13.603373     2.859700
Fe     -4.160913    -0.182715    -8.944790
Fe    -10.129373     0.710779    -0.124975
Fe    -11.123320     0.609097    -1.425360
Fe     -3.271691    11.278693     9.143902
Fe     -4.002829    12.661005     5.151505
Fe     -4.913302    -5.163615     3.507147
Fe     -4.113875    -7.545190     6.303055
Fe    -15.436943    -0.628732    -6.493922
Fe     -5.440920    -8.307006     3.873985
Fe     -2.254173    -7.689533     5.275416
Fe     -2.612521    -5.325780     2.812773
Fe     -5.611632    -6.305274     2.057788
Fe     -5.380455    -6.659712     3.628560
Fe     -3.401572    -4.317827     3.567288
Fe     -2.272112    -6.892751     2.599987
Fe     -5.893102    -6.583121     5.093356
Fe     -2.886753    11.039159    -5.069798
Fe     -1.665688    12.472286    -5.750998
Fe     -3.923591    -7.655578     4.831016
Fe     -4.211673    -5.116053     2.207117
Fe     -0.561280    13.085398    -4.114584
Fe      6.000579    -2.802706    -6.979514
Fe      1.439782    -5.646306    -1.561726
Fe     -0.373053    -5.160578    -1.241999
Fe      0.896827    -3.902666    -7.122903
Fe     -4.789070    -9.229185     4.995979
Fe     -3.473663    -6.286209     7.081387
Fe      1.520481    -2.415632    -6.974557
Fe      4.298868    -3.709843    -6.846764
Fe     -4.212752    -4.816340     6.721626
Fe     -2.963019    -5.274218     5.815191
Fe     -4.081612    12.778809     6.563983
Fe      0.021125    -4.041794     1.599550
Fe      4.910528    -4.822930    -7.960817
Fe     -1.348517    -3.510475   -10.142425
Fe      0.012942    -5.279923    -7.661889
Fe      0.267339    -4.334617   -10.308454
Fe      0.043080     3.741838     4.133600
Fe     -1.002303    -5.307073   -10.499501
Fe     -1.361533    -6.957545     4.305141
Fe     -4.673842    -5.456871     5.081010
Fe     -3.728273    -9.021936     3.818300
Fe     -2.430922    -3.982938     4.903948
Fe     -4.100079    11.662784     7.874094
Fe      4.252402     4.583477     6.391250
Fe    -16.749437     1.292125    -2.440683
Fe      1.182885    -4.287405     0.651839
Fe      6.311311    -3.053417    -8.604823
Fe     -5.813854    -8.095909     5.537450
Fe     -3.357364    -8.924314     5.820858
Fe     -4.074067    -3.966252     5.073016
Fe     -4.052240    -6.560785     1.850137
Fe     -5.039111    -7.975507     2.481626
Fe     -1.894940    -6.096397     5.322141
Fe     -1.577242    -2.646493    -6.895286
Fe     -0.436428    -2.097579    -9.137850
Fe     -1.899555     4.285520     0.136198
Fe     -3.115759     3.775022     0.089452
