1700
Lupine sphere-grid knowledge graph
Co      4.713691   -11.095982    17.948373
Co     14.794388   -16.020177     8.284052
Co     10.660674   -16.748169    17.783967
Co     12.133699   -15.016357    17.963903
Co      6.637487   -13.461725    10.986196
Co      8.656329   -12.944079    10.507320
Co     14.125744   -12.600865    15.768699
Co      9.583539   -16.834280    15.682484
Co     12.868816   -15.524671    13.785054
Co     11.247712   -10.645629    13.875885
Co      6.044592   -13.604839    17.090151
Co     13.741087   -17.201573    15.099644
Co      9.268946   -17.587113    13.647524
Co      7.568189   -14.335730    18.502617
Co      8.546905   -15.001026    11.538530
Co      6.603604   -11.516658    13.870466
Co     13.265067   -18.148869    13.237875
Co     11.888359   -18.968274    14.308184
Co     11.254243   -17.180762    12.581394
Co     10.403670   -12.691936    16.145733
Co     13.920126   -14.384656    10.685171
Co      5.479359   -15.318466    11.344660
Co      8.914158   -10.712837    13.727280
Co     14.082434   -12.622613    12.071129
Co     14.568768   -16.625018    12.877082
Co     10.294042   -14.847395    16.558316
Co      8.045614   -15.457408    16.234172
Co      8.081471   -13.413679    13.011553
Co      9.859891   -19.226902    15.102634
Co      6.430974   -11.836361    15.837836
Co     12.894202   -12.969219    17.318330
Co     11.404265   -18.211510    16.331045
Co     11.457046   -11.324189    17.515890
Co      7.657112   -11.732350    12.102382
Co     13.966558   -14.734469    16.478039
Co     12.082420   -14.705970    15.560951
Co      6.637803   -17.240914    10.581531
Co     12.012943   -17.226956     9.793412
Co      5.010107   -14.931056    15.773240
Co     12.162742   -14.957925     9.465239
Co      7.496539   -11.955271    17.715725
Co      9.215326   -12.799766    18.696649
Co     12.477401   -13.643807    13.114652
Co      8.955186   -18.145286    17.016411
Co      7.411196   -16.473332    14.566503
Co     10.619244   -13.738577    11.831302
Co      6.664961   -14.950096    13.113045
Co     10.408628   -19.542390    12.963441
Co     12.558618   -10.921570    15.807753
Co     12.066165   -12.815828    14.953425
Co      8.531456   -13.519386    16.700561
Co     14.778862   -15.224486    14.698332
Co     10.002467   -18.135985     9.679862
Co     12.437631   -12.946765    10.594569
Co     14.928828   -14.655374    12.452893
Co     14.738291   -13.265647    14.030525
Co     11.136391   -13.241884    18.379923
Co     10.440369   -16.093418     8.870918
Co      9.384097   -10.999745    17.514998
Co      5.499104   -13.085879    12.666214
Co      8.288903   -19.505135    13.328649
Co      5.088143   -13.064800    14.740695
Co      6.669251   -17.501242    16.489858
Co      9.033309   -14.662845     9.277908
Co      6.808128   -18.644091    12.053075
Co      8.109012   -10.550932    15.800234
Co      9.777901   -14.981101    18.672711
Co      9.298423   -17.249841    11.558001
Co      8.274046   -16.444055    18.082052
Co      8.499865   -12.499770    14.940721
Co     10.994593   -19.074144    11.203593
Co     13.437717   -11.433589    13.842016
Co      8.635192   -19.140112    11.123026
Co     12.732189   -16.592128    16.748123
Co     11.957521   -11.620244    12.112340
Co      7.788903   -18.796666    15.311635
Co     12.298887   -15.410965    11.831581
Co      6.996877   -14.133865    14.981156
Co      9.891695   -11.644620    11.718844
Co     11.501899   -16.821502    14.698112
Co      7.097926   -15.191872     9.898951
Co      5.285055   -16.992975    12.666684
Co      6.232009   -18.378436    14.080509
Co      6.169362   -15.730335    17.354520
Co      4.651382   -15.027512    13.566032
Co     10.290243   -12.494678    13.736331
Co     10.297884   -10.415293    15.679372
Co     12.808764   -18.304437    11.369339
Co      5.237100   -16.752161    14.976111
Co      8.345184   -16.921901     9.512031
Co      7.568279   -16.671114    12.477617
Co     13.815963   -16.522690    10.924308
Co     10.651032   -13.370771     9.747624
Co     10.506396   -15.730242    10.963267
Co      9.840808   -15.162571    14.044779
Co      9.815948   -14.745204    13.800101
Cr      1.173030     6.391739     6.197338
Cr      4.375387     3.404588    -6.259010
Cr      2.939468     4.326991    -7.551901
Cr      3.208060     6.053582    -7.020574
Cr      2.583192     6.280025    -9.673297
Cr     12.489785     2.814317   -10.989760
Cr     10.145058    -3.982747     4.233918
Cr     10.311206    -3.870707     7.434040
Cr     12.271207    -4.886594     4.382591
Cr     11.829425     6.991342   -10.077223
Cr      9.261339     1.268530    -8.879922
Cr     -0.193064     5.423658    -1.935881
Cr      8.414772    14.430522    -8.996309
Cr      8.735124     8.224901    -9.667998
Cr     15.109984     7.654185   -10.136943
Cr      0.571721     1.775171     3.799215
Cr      5.623621     0.615878    -9.179827
Cr      2.821003    -0.884918     6.323215
Cr     -0.220773     0.507801     7.142297
Cr     14.109003     6.093303    -9.302523
Cr     10.189622     9.143472   -11.209630
Cr     10.422691     5.265307    -9.942389
Cr      2.477981     0.107272    -6.958287
Cr      5.575429    15.330462    -7.144095
Cr     17.039073    -3.634482     2.665059
Cr      8.798963     7.705993   -11.613775
Cr     12.558689     4.660159   -11.966688
Cr      8.969495    11.104826   -10.158112
Cr      9.437175    -3.486224    -2.021471
Cr     12.786298     4.865886    -9.935441
Cr      4.308760     1.408157    -6.888911
Cr     15.791008     3.966415    -9.079928
Cr      4.274155    -0.514414    -6.178038
Cr      6.732005     6.239669   -11.725811
Cr     16.058031    -1.863339    -3.781809
Cr     11.134644    -3.190686    -3.134237
Cr      6.855325    -4.297784     5.077424
Cr     -1.150904     0.826146     5.172999
Cr     10.441950     3.852270   -11.439935
Cr      0.453790    -1.146953     2.832084
Cr      1.194023    -1.030092     7.275246
Cr     10.379035    -5.487379     5.149994
Cr      7.923130    -5.064168     2.288041
Cr     14.554604    -3.840732     0.640683
Cr     17.439418    -3.319904     0.517192
Cr     13.755396    -5.115194     2.036949
Cr     16.008753    -3.996070    -0.913723
Cr     16.116233    -4.906792     1.315483
Cr     15.240864    -4.436715     3.412981
Cr      4.410678     9.772258    -9.367824
Cr     12.848998     0.255125    -9.051986
Cr      7.345560    -4.073518    -2.186862
Cr      8.057487     9.788971   -11.419937
Cr     16.388613     0.124669    -7.496660
Cr     13.193724    -3.420625    -2.489611
Cr      4.654997    -2.974975     6.494530
Cr     16.271211     5.866683    -9.414492
Cr      6.712784     0.772074    -5.535989
Cr      7.111946    -0.703774    -6.714791
Cr      4.842656     0.813902    -4.486161
Cr      5.457854    -0.497079    -3.169932
Cr      7.425353    -2.420193    -5.862845
Cr      5.404879    -2.513651    -2.600266
Cr      8.860346     0.043755    -5.820062
Cr     12.245419    -4.258615     6.402846
Cr      6.358800    -3.398623     7.045222
Cr     19.313346     0.727558    -4.239154
Cr      2.221921     2.387611    -7.507146
Cr      1.524953    -2.275681     5.415588
Cr      6.143802     2.210429   -10.232064
Cr     13.288453     8.509262   -10.498899
Cr     13.089150     6.859266   -11.683367
Cr     11.270317     8.129726     2.613343
Cr      3.504303    -1.829669    -4.096977
Cr      5.274477    13.099621    -8.857283
Cr      5.572833    -3.941864    -0.498806
Cr     11.337802    -0.978615    -8.437627
Cr      9.470233    -1.885361    -5.895103
Cr     13.416306    -2.369502    -5.934255
Cr      6.167524     7.928371    -9.452006
Cr      8.950583    -4.135995     0.612555
Cr      7.753173    -2.030601    -2.135239
Cr      5.676475    -3.214582     3.979354
Cr      4.999949    -4.799928     4.938508
Cr     14.775269     5.330901   -11.098771
Cr      5.217753     4.778922    -8.792787
Cr     17.172095     1.894956    -7.008384
Cr      3.326223    -2.349305    -0.399426
Cr      3.606015     4.537280   -10.353367
Cr      2.486859    -2.996744     1.667352
Cr      2.567570     8.346335    -9.066256
Cr      7.128187    10.471584    -9.769437
Cr     13.641433     3.201083    -8.784570
Cr      3.883937     8.398720   -10.760796
Cr      7.074866     5.688671    -9.758518
Cr     18.551133    -1.153207    -4.621668
Cr      8.131867     1.930765   -10.815385
Cr     10.915135     6.044935   -11.872735
Cr      5.783957     8.258190   -11.426096
Cr      4.958627     6.314546    -9.605320
Cr     18.871159     1.990029    -5.861429
Cr     18.964710    -0.804251    -2.664397
Cr      7.368377     1.197300    -8.583681
Cr      7.815688    -0.252720    -9.594443
Cr      5.851741    -4.993209     1.409594
Cr      1.715832    -0.891502    -4.804044
Cr      1.499169     1.105432     6.296770
Cr     17.679753    -2.354952    -3.008640
Cr      5.990903    -2.040776    -0.313318
Cr      3.112778    -0.156422    -2.978288
Cr     16.666292    -0.280116    -4.991655
Cr     11.343498     3.397742    -9.274132
Cr     16.902613    -1.940094    -5.900187
Cr     15.078722    -0.084430    -6.047236
Cr     -1.088587     7.178523     1.556713
Cr      4.257990     5.514879    14.621250
Cr      6.310185     1.888697    11.959844
Cr      2.786967     4.974047    10.898355
Cr     -0.298509     2.113784    -3.643874
Cr      7.008945    -0.267654    11.741534
Cr      3.695075     1.571345    13.375006
Cr     -0.481473     1.911715     0.014115
Cr     -1.098724     3.890020    -3.922440
Cr      5.632935     6.936599    14.177634
Cr     -1.581160     6.839728    -2.365327
Cr      4.607314     1.846371    10.896562
Cr      7.174250     5.396597    14.378310
Cr     -1.898216     6.094999    -0.129228
Cr      3.004650     1.621140     9.403284
Cr      1.607316     5.497191    -4.799736
Cr      5.370246    -0.248996    10.146124
Cr      1.122143     1.547985    10.371213
Cr     -0.092388     5.206690    -6.037623
Cr     -0.616953     3.397225     1.419715
Cr     -1.874028     4.421278    -2.035789
Cr      8.014262     3.182817    14.113321
Cr      1.696136     7.707314    12.021448
Cr     -0.052214     5.107531     0.447063
Cr      0.318576     3.736885    11.063713
Cr      5.946461     4.102587    14.898531
Cr      0.739944     3.665795    -0.807641
Cr      3.810031     7.916504    13.448561
Cr      7.976175     1.158649    13.222928
Cr      0.732973     2.110686    -1.813797
Cr      0.365674     9.628806    -3.360435
Cr      1.624966     3.110374    -3.588139
Cr      4.072652     3.297831    14.355259
Cr      2.488503     6.122947    13.724220
Cr      6.081705     3.765350    12.779209
Cr      3.222908    -0.265506    10.065011
Cr      1.050124     7.115680    -3.391896
Cr      0.912927     6.037161    10.636389
Cr      1.265657     4.825695    -2.899470
Cr      6.154685     2.084220    14.296460
Cr      5.542995     0.516860    13.240088
Cr     -1.974218     3.799006     0.068039
Cr      0.115700     6.976252    -0.781317
Cr      4.612835    -0.488478    11.802630
Cr     -0.859642     8.641710    -0.030958
Cr      4.792800     5.390915    12.649768
Cr     -1.348774     2.430207    -1.740814
Cr     -0.407656     8.647090    -1.978333
Cr      2.706984     0.651550    11.837098
Cr      2.286977     3.968536    13.514687
Cr      0.584379     7.152753    -5.907889
Cr      1.213837     3.829728     9.408506
Cr      0.466475     3.436631    -5.266822
Cr      1.026003     5.226190    12.416936
Cr     -0.643513     7.834802    -4.268662
Cr      3.246590     6.618358    11.917887
Cr      1.091599     8.888129    -5.183253
Cr     -1.460857     5.219874     2.125926
Cr      2.691700     3.074622    10.614899
Cr     -0.958165     5.799030    -4.277029
Cr      1.571360     2.393732    12.423792
Cr      4.329419     8.016750    -8.353159
Cr     -0.724451     0.443061     2.951105
Cr     18.234543     0.148048    -6.425629
Cr      1.063926     0.121571     4.536606
Cr      3.977307    -0.533684    -1.200765
Cr      3.912424     3.455094    12.125835
Cr      5.756463     4.573934   -11.255445
Cr      9.702314    -5.368718     2.276585
Cr      5.631062    -1.713931    -5.456545
Cr      9.379880    -1.505621    -3.972369
Cr      6.193410    -3.201309    -4.186006
Cr      8.446028    -3.366982    -4.256766
Cr     10.887366    10.586066   -10.300482
Cr      5.102982    -2.590764     1.673901
Cr      1.023291    -0.567716    -2.295105
Cr      1.250563    -2.355542     0.198182
Cr     14.193963    -5.331821    -0.226105
Cr      4.278399     6.373494   -11.510944
Cr     10.978587    -5.235229     1.045115
Cr      3.531405     1.817083    -8.852281
Cr      3.759832    -3.412693     4.477565
Cr     14.623119     3.239254   -10.566173
Cr      7.799047     3.083304    -8.920821
Cr      8.907600    -4.338535     6.147283
Cr     12.197366    -4.937524    -2.615553
Cr      2.336433    -1.080140     3.817729
Cr     10.186803    -2.384476    -7.317834
Cr     10.623718    -4.937406    -1.117582
Cr      7.824811    -5.465903    -0.929513
Cr      2.090751    -0.251946     0.139953
Cr      4.021358    -4.626505     0.655021
Cr      2.338144    -2.760321    -2.877674
Cr     -0.281003     2.484233     6.634947
Cr     14.515957    -3.534756    -4.511805
Cr     11.450769     0.599375   -10.232917
Cr     10.138635    14.146186    -9.356209
Cr     -0.655571     5.788954     7.726971
Cr      4.063790    15.027415    -6.260263
Cr     -0.619912     8.500211     6.824787
Cr     -1.080377     6.426485     5.861711
Cr     -0.066392     8.014930     8.641858
Cr      3.765218    12.403630    -8.251912
Cr     -0.233556    -1.203959     5.090668
Cr     -0.935921     2.788713     4.812143
Cr     14.641862    -2.635083    -6.922369
Cr     14.481515     0.533147    -9.393235
Cr     18.430423    12.432059     0.368873
Cr     14.864184    11.120619    10.274777
Cr     10.684467    15.615279     2.302391
Cr     15.085465     8.150019     6.117242
Cr     17.380173     7.731474     5.658154
Cr      4.371821    14.045303     6.049940
Cr      9.137087    12.739680     5.117243
Cr      4.316132    10.669664     5.937308
Cr     11.354462     3.706640     9.245041
Cr     11.150973     8.441218    10.469996
Cr     18.902283    11.116587     4.692189
Cr      4.556213    15.047129     1.668252
Cr      5.627566    10.702450    -1.667582
Cr      5.004396    13.106296     2.709939
Cr     12.910323     9.391824     9.514564
Cr     19.780996     7.412039     4.737233
Cr     12.582490    16.846363     2.871271
Cr      8.002192    12.845887     0.750547
Cr      4.756939     5.180031    -1.521828
Cr      9.107909    10.260956    -2.048034
Cr      6.831548     7.633669     1.234186
Cr     15.973369     2.210923     0.881348
Cr     17.666806     3.101673    -2.173302
Cr      3.397992     7.693826     7.625580
Cr      8.156258    10.661536     8.891137
Cr     12.629000     7.293232    12.069596
Cr     15.828693     2.932252    -3.293128
Cr      8.643312    11.344792     6.695816
Cr      7.392092     1.001697     0.769213
Cr      9.979340    12.541033    -3.625384
Cr     10.649524     6.000081    -2.232619
Cr     18.347651     8.712893    -3.946839
Cr     11.688717    10.492318     1.689988
Cr     13.519901    15.319392    -2.741144
Cr      7.155769    11.728387    -5.393138
Cr      8.414401    11.092977    -3.973682
Cr      9.868868    -0.532682     5.232141
Cr      6.472162     6.115095    -0.340340
Cr     12.116927     4.361879     3.002658
Cr     13.699844     0.789996     4.422920
Cr     11.071977     2.051445     7.875703
Cr     16.395336    14.242017     5.403171
Cr     11.020729     7.157151     4.510151
Cr     14.654744    10.170672    -4.232655
Cr      4.919649     6.385087     2.669110
Cr      6.218454     4.977925     8.749694
Cr     11.930696    12.034029    -1.335524
Cr      4.091301    11.671734     8.491866
Cr      9.734742     8.860575     0.831040
Cr     11.747890    12.257161     2.627595
Cr     14.378370     3.110313     2.274799
Cr      5.846195     8.885303    -0.381892
Cr      2.993797     6.419680     1.625494
Cr      9.329116     8.453902     4.343649
Cr     14.204172    13.139478    -2.200331
Cr     17.576520    10.559955     3.112905
Cr      8.166387     3.274161     9.302559
Cr      8.622628    13.499844    -5.019580
Cr      9.180472    13.617877    10.119224
Cr      5.416314     4.080302     3.384857
Cr      4.196467    14.662083     3.872332
Cr     15.566400     9.897342     2.693855
Cr     10.169849    10.086683     7.794230
Cr      3.255891    10.652343    -1.385381
Cr     11.826906     1.314499    -2.999766
Cr     13.510521     9.383104     1.918007
Cr     11.986780     3.007738    11.175690
Cr     12.443864     2.811773    -4.599173
Cr      7.283458     7.797530     5.314657
Cr     11.469598     8.389161     8.156191
Cr      4.812545     7.136420     0.613973
Cr     14.449846    14.005296    -4.149810
Cr      8.169501     6.790027     8.827373
Cr      5.737126     3.713203    -2.455602
Cr      5.754774    10.510350    -4.665810
Cr     13.048203    14.078539    -0.800643
Cr     13.202321    11.331113     8.650204
Cr     15.008335     6.009583    -0.951188
Cr      9.602384     4.728993    10.705254
Cr     12.345182     4.634236     7.593580
Cr     13.518217     8.831921     7.326266
Cr      6.635694     6.826534    -5.034791
Cr     14.561644     7.506394    -2.349845
Cr     13.220557     6.385663     0.301398
Cr     15.801391     3.571310     9.908014
Cr      8.688677     6.385263     4.430109
Cr     15.804434    11.535050     3.985103
Cr     13.570375    11.887899    -3.714696
Cr     17.041839     1.125772     6.782006
Cr      9.646733    14.990456     8.632131
Cr      9.823825     7.209822    -4.207484
Cr     11.366451     5.626639     0.590472
Cr     15.248992     2.921246    -1.303546
Cr      8.533009     2.890571     7.164377
Cr      6.193714    12.746275    -1.261631
Cr     17.678177     3.524012     1.270646
Cr      8.944011    13.840204    -2.526609
Cr      6.630680     5.319969     4.864393
Cr      3.190113     4.666496     2.944191
Cr      2.378961     6.576959     3.734057
Cr     11.478587     5.613980    -4.163646
Cr      6.995155    12.079641     8.229471
Cr      7.934300    17.034465     2.547390
Cr      3.920431     5.232504     6.899969
Cr     18.678485    12.364878     2.831547
Cr     16.945574     5.211260     9.345544
Cr     10.995592     9.497638    -1.031501
Cr     15.749470     4.040421     5.598035
Cr     10.614990     2.809969     3.588137
Cr     10.989343    14.204111    -1.702541
Cr     10.896287    13.377336    -5.651030
Cr     19.441572     9.012760    -1.568841
Cr      5.091421    13.586875     8.143039
Cr     20.256936     7.709244     2.703896
Cr     13.889914     4.286742    -0.607986
Cr     14.999579     9.774140     8.677719
Cr      6.744967    12.040621     2.398795
Cr      6.265813     7.061042     9.801687
Cr      8.635655    -0.196633     1.889277
Cr     17.238703     1.696024    -0.770132
Cr      5.093555     8.384807    -4.018934
Cr     15.390549     9.973973     0.304408
Cr      9.635634     8.713640    12.170404
Cr     13.073229     2.014794     7.667078
Cr     11.170934     0.263731    -1.215467
Cr     10.417029    -0.867015     3.105163
Cr     10.610497     4.198318    -5.443413
Cr      7.876872     5.204425     1.145468
Cr      6.444849     0.697303     4.790918
Cr     14.349628    -1.004084     4.824128
Cr      7.752213     5.391043    10.223737
Cr     14.879377    -0.636369     2.743745
Cr     12.708591     8.292148    -1.610873
Cr     12.021404    13.260862    -3.118623
Cr      8.742191     3.682495    -4.551999
Cr      9.440640    12.264896     8.626561
Cr      4.234671     9.958652     0.253000
Cr     10.099118    10.811651     0.091756
Cr     12.885064     9.045814    -6.602184
Cr      2.361018    10.086342     1.386412
Cr     19.290603     9.227701     5.465689
Cr      6.922167    10.446703    11.081052
Cr      6.368128    10.584071     0.916562
Cr     16.670807     9.229987    -5.377302
Cr      7.048856     5.864204     2.864719
Cr     13.350449     1.620446     9.900730
Cr     19.105050     3.135814    -0.357508
Cr     12.678771    -0.943216     2.573277
Cr      9.290586     3.830173    -2.052013
Cr     12.232251     0.046348     8.517701
Cr      9.496687    12.430286    -1.201251
Cr     13.924368     3.449672    10.848235
Cr     12.610659     6.677269     7.746088
Cr     18.147939     7.679641     0.043180
Cr      8.110790    12.142212    10.655824
Cr      9.941371     9.828566     2.795958
Cr      5.226709    12.350143    -3.725999
Cr     18.591947     8.598168     7.327230
Cr      6.693169     8.921922    -5.339528
Cr     10.530012    13.679081     3.492967
Cr     14.879229     6.002441    -5.552890
Cr      4.218390    10.574548    -3.404751
Cr      8.704148     1.593393     4.474499
Cr     12.866047    15.749532     6.583438
Cr      5.878891    10.197524     8.332665
Cr      4.964805     3.664010     6.549490
Cr     20.166387     7.093494     0.418254
Cr      3.836882     9.962979     3.728085
Cr      4.046105     9.253157     8.974520
Cr     13.209929    11.289543    -6.427758
Cr      9.307656     1.589141    -2.185396
Cr     10.912765     3.140737     1.335663
Cr      8.040486     0.034496     6.153084
Cr      3.138617    12.882682     4.423862
Cr     11.014642    12.951668    10.448118
Cr     13.406084    12.828253     6.916513
Cr     12.940067    10.259613    -2.452665
Cr      9.973754     2.823861    10.447657
Cr      8.229623    -0.298924     3.852102
Cr     14.888763    10.136717    -6.279139
Cr     15.781290     4.363134     7.702600
Cr     18.768054     1.853106     2.969000
Cr      2.845367    11.886393     0.338324
Cr     19.049790    10.803688    -0.653715
Cr      7.096194    11.810488     4.967425
Cr     15.209821    13.276548    -0.007872
Cr      5.530003     1.893307     0.926711
Cr     13.288184     8.278942     3.953619
Cr     15.253134     5.386462    10.922053
Cr     19.780620     3.509944     1.855401
Cr     15.983696    15.261314     0.893370
Cr     10.256789     9.974271    -4.729980
Cr     13.823481     3.550972     8.655611
Cr     17.834955     8.496893     3.613642
Cr      5.171829     6.352975    -3.382758
Cr      7.625293     7.231168    -3.354368
Cr     11.906259     1.362989     5.866398
Cr     14.443472     0.328376     8.213822
Cr     12.934074    12.518781     0.808714
Cr      9.547354     4.560367    -0.103831
Cr      8.392894     9.961715    -6.096357
Cr     14.596992    16.019879     2.632268
Cr     17.120607    13.892004    -0.564973
Cr      8.389838    11.022111     3.448931
Cr     10.513446     6.179576     8.244362
Cr     14.691313    15.603502    -0.829570
Cr     13.625647    16.433065     0.808900
Cr     12.381619     7.365027    -3.465218
Cr     12.372802     5.344127     4.928217
Cr      6.514383     0.659176     2.663598
Cr     14.578848    14.338162     4.211056
Cr     12.520100     5.208776     9.832799
Cr      3.126650     8.334570    -0.072760
Cr     10.824301    12.043819     6.356495
Cr      9.633588     3.366754     5.249356
Cr      8.508533     8.987897    -4.018306
Cr      9.315972     1.441353     9.025787
Cr      7.135551     3.212158     5.584575
Cr     13.980363     1.842951    -3.140851
Cr     16.164996    13.164795     7.312994
Cr     14.194680     8.124238    -4.308719
Cr     11.840746     9.778385     4.132083
Cr     11.698275    11.645961    -4.775457
Cr     11.216417     4.860697    11.905604
Cr      3.879218    13.755850    -0.174718
Cr     15.022542     1.283235     2.763004
Cr      8.643175     5.970115    -1.373831
Cr      8.311295     9.026830     7.186300
Cr     16.391447     4.962144    -4.729134
Cr     17.399755     3.630315     4.742105
Cr     18.224154     4.653516     2.969879
Cr     13.417088     4.032223    -2.828567
Cr     11.728364     3.468045     5.668579
Cr     17.638483     7.974060    -2.165857
Cr     12.772148     5.979725    -1.786797
Cr      2.291127    10.920853     5.142144
Cr     12.399574    15.058637     4.185639
Cr     17.830674    12.339447    -2.034557
Cr     16.414496     7.047623     7.634770
Cr      4.694904     1.998121     2.965198
Cr      9.532357    11.755610    -6.010619
Cr      5.031257    12.029688     0.216120
Cr     18.181334    10.660634     7.039261
Cr     18.282074     4.624573     7.824057
Cr     11.469970    12.633526     8.271845
Cr      7.888154     9.539337     1.805210
Cr      8.077588    15.130045     1.226568
Cr     18.208564    10.493662    -2.864125
Cr      9.801060     1.435198     6.260419
Cr     20.022880     5.439866     4.043950
Cr      9.083646    16.097283    -2.448652
Cr     12.777691     1.096982     2.267036
Cr     18.378131     7.273600     2.167507
Cr     11.120688     0.886126     3.989770
Cr     11.607786    17.127913     0.946220
Cr      2.690022     8.852600     5.666114
Cr     11.633550    16.741531     4.944662
Cr     19.179908     4.897585    -1.859647
Cr      6.416649    16.310721     0.933611
Cr     18.403827     1.479592     1.017680
Cr      8.851837     2.628180     0.372170
Cr     11.535241     8.085599    -5.232348
Cr      7.918437    11.126459    -0.189924
Cr      8.835943     4.902729     8.334313
Cr      7.469435    16.585013     4.751411
Cr      7.577338    14.361008     8.768170
Cr      4.405723    11.144897     2.128082
Cr     14.720078     7.696246     8.787774
Cr     19.189127     6.652238     6.589373
Cr      3.995323     3.358051     1.601382
Cr     11.288938    15.943973    -2.821032
Cr      8.537446     7.670130    -5.937487
Cr      5.613376     8.959635    10.204648
Cr      2.339216    11.404058     3.002608
Cr     10.722463    -0.650516     1.022839
Cr      4.894682     6.515317     8.267827
Cr      8.151945    16.747407    -0.348424
Cr      7.968051     9.772451     4.979088
Cr     16.080971     7.969383    -0.719791
Cr     19.601740     6.945362    -1.662314
Cr      6.803682    14.464410     2.870961
Cr     14.337168     9.885593     5.186593
Cr     16.290273     8.363933     1.546174
Cr     17.486670    13.845875     1.689676
Cr      9.474307    11.711670     1.800608
Cr     17.811764    12.464930     5.862504
Cr     11.261920    10.696285    -6.654246
Cr     10.331266     2.442977    -3.957726
Cr     14.236090     7.486889     2.111322
Cr     11.710183    14.139850     6.710552
Cr      3.290026     6.807472     5.614641
Cr     10.300296     8.714769    -6.589130
Cr      7.518423    14.970614    -3.533386
Cr     15.501687     8.374581     4.045064
Cr     16.489549     7.141646    10.016159
Cr     13.798220     2.345383     5.748734
Cr     14.549622    11.495368     1.433378
Cr     19.436142    10.866356     1.643062
Cr     19.721336     5.092049     0.063217
Cr     14.689875    12.610098     5.317235
Cr     12.076165     6.328638     2.535837
Cr     10.434726    16.814269    -0.926528
Cr      6.916013    15.811283    -1.659166
Cr      6.426582     7.934423     7.720037
Cr     16.942273     9.805396     5.066705
Cr     16.332626    12.986075    -3.493005
Cr     15.700878     6.227565     5.025757
Cr     10.659723     6.862719    12.326755
Cr      9.798406    13.894201     1.454171
Cr      8.128386     4.187332     3.709755
Cr     11.930279     8.200772     0.756577
Cr     14.710609    14.723489     6.471957
Cr      1.896986     9.000565     3.723942
Cr     12.789816    10.279374    -0.063868
Cr     11.719674     9.372442    12.133864
Cr     14.797452     9.572275    -1.812957
Cr      5.907829    16.165606     3.110546
Cr     13.089151    13.012931     9.939539
Cr      4.238782     8.870560    -2.210009
Cr      9.055082     5.414726    -3.546141
Cr      6.829862     4.848609    -4.306263
Cr      6.501880     7.851864     3.416880
Cr     15.359873     2.309747     7.010360
Cr      4.992292    11.752273     4.335805
Cr     18.551394     6.591818    -3.627141
Cr     12.168663    14.767802    -4.418763
Cr      6.633732    10.250418     6.505857
Cr      3.132079    13.228342     2.029240
Cr     11.290428     1.187906     9.898710
Cr     16.691639    11.242987     8.586595
Cr     17.343105     6.079162    -1.306395
Cr      9.967613    14.950149    -4.205409
Cr      9.911489     7.795243     6.542126
Cr     13.623613    10.851552     3.349825
Cr     10.785887     6.348413    10.170472
Cr     14.293320     3.993317     4.129324
Cr      8.888767    15.387557     3.396662
Cr     15.923776     6.387747     0.871826
Cr      3.235721    12.397242     6.639198
Cr      7.647400     3.025571    -2.847708
Cr     10.378497     3.942984     7.394533
Cr      5.441827    14.229884    -2.489212
Cr     12.766935    11.337609     5.215191
Cr     15.726530     1.936754     4.796456
Cr      5.075452     3.236435    -0.470478
Cr      8.596782     7.610808     2.624800
Cr     12.395029    14.461067     2.204994
Cr      8.525558     7.338572     0.063463
Cr     15.705863     9.101950    10.481035
Cr      8.609269     2.216952     2.473835
Cr      6.063935     1.605643     6.528381
Cr     12.155394    10.453519     6.983560
Cr     19.439408     3.239197     4.284700
Cr     10.938933    10.971678    -2.781326
Cr      9.530663    14.931744    -0.407075
Cr     12.172775    -0.908669     4.615099
Cr      7.011837    13.058989    -3.692868
Cr      3.982190    12.573596    -1.980454
Cr     13.895186     5.841181    -3.768294
Cr     16.340082    14.973041     3.256749
Cr     14.625144     7.296099    11.251760
Cr      8.842457    10.668193    11.855289
Cr     17.302281     9.080204     9.038158
Cr     14.041998     6.172519     3.875879
Cr      9.822229    -0.109953     7.891362
Cr      6.771486     9.527906    -2.894618
Cr     16.922123    11.082438    -4.454561
Cr     10.870266     8.725078    -3.025150
Cr     14.674674     6.100804     7.010291
Cr     14.136172     5.319008     1.944277
Cr     16.988384     7.115810    -5.208893
Cr     10.334214     1.179460     2.010948
Cr     16.825091    11.492428     1.346008
Cr     15.562442     4.872518    -2.528696
Cr     15.802072    14.423667    -2.084569
Cr      8.141890     6.731454     6.819390
Cr      5.729854    15.562641     5.259633
Cr      5.268869    11.187666    10.071120
Cr      9.607241     8.088124     9.064868
Cr     14.455587     3.787946    -4.713490
Cr      7.496126    11.629015    -2.264675
Cr     15.332172     0.883617    -1.297492
Cr      6.338890    10.115942     3.304735
Cr     16.484007     0.229255     0.827722
Cr      6.128038    13.754396     0.859432
Cr     17.215466     0.366563     2.763978
Cr     10.314255    14.816529     5.179332
Cr      7.589397     8.836890     9.386672
Cr     10.673340     6.351969    -6.206191
Cr     18.277931     2.821010     6.414164
Cr     14.140658    14.354431     1.337206
Cr     15.141931    12.117688    -5.298703
Cr      6.960307     5.397965    -2.337012
Cr     13.071032    13.151040    -5.622180
Cr     10.763130     5.862431     6.241546
Cr     12.916494     7.278055     9.860229
Cr     11.302679     3.878892    -2.977325
Cr      6.140070    13.585515     4.720384
Cr     11.003178    12.785687     0.353989
Cr     19.728891     9.584299     3.282374
Cr     16.166698     6.762345    -3.392085
Cr     16.685679     2.620148     2.999666
Cr     12.583306    16.391610    -1.142558
Cr      7.438382    13.355175     6.749425
Cr     13.705729    12.903475     3.161720
Cr      4.146315     7.057556    -1.445230
Cr     15.596962     4.304159     0.817032
Cr      7.834628     9.177338    -0.691188
Cr      4.178690     7.864401     3.984928
Cr     16.081648     4.709352     3.096520
Cr      5.625591     4.876258     1.274965
Cr      8.376621    13.217333     3.184836
Cr      9.557952     9.889426    10.165543
Cr     17.001781     4.256207    -0.679693
Cr      9.501415    13.766753     7.048736
Cr     10.742071    11.266405    11.522286
Cr     16.392754     9.306139     7.157742
Cr     17.991202     1.286543     4.840685
Cr     12.784011     2.460633    -1.427583
Cr     10.311824     5.204111     4.041859
Cr      8.878749     6.794429    11.252091
Cr      6.358237    12.960575     9.843114
Cr     13.739922    14.346723     8.260325
Cr     17.174839     2.812582     8.235555
Cr      3.823908     5.089180     0.296747
Cr      5.486601     6.956843     5.976738
Cr     15.688961    11.279930    -2.639672
Cr     12.749586     2.544545     3.726897
Cr      6.791046     2.520289     3.665377
Cr      9.591211     4.376913     2.281772
Cr     11.627452     4.289830    -0.929190
Cr      8.006186    14.620735     5.202319
Cr     17.851964     5.636934     1.018719
Cr     13.367613     0.351431    -1.455535
Cr     13.775626     4.415017     6.270077
Cr     16.388054    11.735118    -0.719877
Cr     19.918150     9.064001     0.750003
Cr     14.089039     8.278470     0.016267
Cr      5.555163     9.136037     4.936048
Cr     20.110369     5.626639     2.055116
Cr     13.764586     9.231475    11.435180
Cr     12.619896     9.711581    -4.478549
Cr     12.825694    11.166771    11.084241
Cr     17.946580     6.170732     4.302611
Cr      5.335506    15.168754    -0.514391
Cr     19.257204     4.707128     5.860135
Cr     11.871100     1.479413     0.475585
Cr     13.245268     7.044435     5.739380
Cr      2.915038     8.314050     2.136662
Cr     10.548137    11.530931     4.176308
Cr     18.149725     6.832897     8.518280
Cr      9.452748    16.754022     5.250055
Cr     14.496868    10.961157     7.031013
Cr     17.201070     5.458386     6.302636
Cr      5.088472     8.872634     2.008191
Cr      8.328577    15.863425     6.997745
Cr      7.706961     1.091157     7.775282
Cr      6.935801     3.293727     1.619353
Cr     17.194383     9.833816    -1.031944
Cr     13.409544    -0.382660     6.619414
Cr     16.351110     6.727654     2.969664
Cr     14.464870     5.603341     9.052880
Cr     12.740680     4.793185    -5.546782
Cr     10.233863    17.282893     3.272394
Cr      7.662078    14.069333    -0.919399
Cr      6.489792     3.153864     7.916585
Cr     14.511117    -0.091743     0.693496
Cr     14.122605    11.567755    -0.939621
Cr      4.781861     8.862949     6.853274
Cr     15.705696    13.041681     2.384799
Cr     10.127437     9.975639     5.631529
Cr     17.755389     4.776675    -3.354488
Cr      5.533050    12.211361     6.620510
Cr     16.216721     9.031776    -3.307005
Cr     10.789020     7.299833    -0.752795
Cr     12.645203    -0.576771     0.420892
Cr     11.683900    14.658998     8.869641
Cr     12.924540     6.873969    -6.034122
Cr      6.340635     7.656393    -1.861315
Cr      7.207626     1.951051    -1.042516
Cr     10.678946    16.041940     7.029622
Cr     11.392021    -0.544081     6.666811
Cr      8.654447     5.613196    -5.655001
Cr     17.868018     9.539592     1.122504
Cr     12.279509    13.246299     4.914282
Cr     16.389296    -0.118398     4.560537
Cr     16.215440    11.346851     6.176583
Cr      9.497151    17.085842     1.132733
Cr      7.202521     3.955774    -0.571812
Cr     12.771891     3.779523     1.057859
Cr      3.397429     4.102573     4.899082
Cr      7.684607     8.391557    11.404613
Cr      4.644364     5.597803     4.616456
Cr     11.857603     8.557432     5.937389
Cr      2.888950    10.207461     7.442457
Cr     11.226204    10.815420     9.435683
Cr     10.611836     2.422694    -0.937937
Cr     14.085033    16.158733     4.757381
Cr      8.649237     4.943077     6.078019
Cr      9.089218     8.061061    -2.009206
Cr      6.534458     5.229763     6.880958
Cr     15.422370     1.776024     9.073207
Cr     17.329892    13.129927     3.980400
Cr      9.282707     0.534151    -0.185316
Cr     13.252781     5.310970    11.776598
Cr      4.831613     2.458709     4.919943
Cr     15.455429     0.013638     6.425459
Cr      6.316462    15.088529     7.165228
Cr     15.023604    12.668929     8.830493
Cr     11.617567    15.026047     0.325508
Cr     13.938272     1.959994     0.375264
Cr     15.010407     8.019124    -6.095195
Cr     12.328334    -3.511650    -5.433585
Cr      6.582256    14.399394    -8.463172
Cr     12.786053    -0.976476    -7.554257
Cr      7.175949    -0.835427    -3.582932
Cr      9.777547     6.417328     1.545848
Cu    -15.597499   -11.583816     9.748783
Cu     -9.936028    -9.331977     9.896571
Cu    -17.745317    -8.352910    15.129566
Cu     -6.885383   -10.730804    16.118202
Cu     -8.339900   -14.973414    12.194436
Cu    -10.058258    -7.009019    12.983756
Cu    -11.792393   -14.330222     7.835334
Cu     -8.186622   -16.573794    13.215889
Cu     -6.681635   -15.006166    12.624029
Cu    -16.417533    -7.044171    14.566145
Cu     -7.994291    -8.756852    16.141435
Cu    -14.545760    -6.716204    11.874675
Cu    -13.767376   -15.588700    12.988744
Cu    -15.366428    -9.058421    15.859489
Cu     -9.055246   -11.461267    16.019606
Cu    -17.750119   -12.865459    10.183633
Cu    -17.705686   -11.576817    11.691785
Cu    -14.151984    -9.976654     9.769271
Cu    -14.443450   -10.833588     7.932257
Cu    -14.738976   -12.835411     8.528289
Cu    -17.840465   -10.418746    10.205110
Cu    -15.582776   -10.721807    11.403841
Cu    -16.881745   -11.779039     8.323228
Cu    -16.225608    -9.562226     9.301228
Cu    -16.540718   -13.807423     8.727691
Cu    -10.529472    -7.750369     9.529225
Cu    -12.391233    -8.119017    12.649170
Cu    -11.449667   -12.015461     8.607670
Cu    -13.573605    -5.074961    13.568932
Cu     -9.120823   -15.287053     9.650687
Cu    -11.467274    -7.919237    14.871967
Cu    -10.403295   -10.407515    11.718840
Cu     -8.269946   -10.189996    10.913026
Cu    -12.110486   -11.611134    10.726729
Cu    -11.627721   -10.149046     9.258364
Cu     -7.781349   -11.931081    11.678520
Cu     -8.881419   -13.823774    10.772668
Cu     -7.464290   -12.646072    17.061254
Cu     -9.747468    -9.563437    15.009346
Cu    -13.048122    -5.185609    15.589773
Cu    -10.018090   -12.788255    12.352179
Cu    -13.708613   -10.048120    15.041728
Cu     -9.192735   -12.385091    18.271691
Cu    -15.276217    -9.073180    13.605516
Cu    -11.411580   -12.050441    18.065150
Cu    -13.827837   -14.745268    10.462147
Cu    -14.872305   -17.490999    11.882766
Cu    -10.903747   -17.175563    11.905799
Cu    -15.035956    -7.670497    10.474453
Cu    -16.584044   -16.304016    12.114807
Cu    -16.740455    -7.226455    11.658201
Cu    -11.504300   -16.247398    15.584462
Cu    -15.713275    -5.480807    12.431726
Cu    -12.200341   -15.137264    11.814838
Cu    -16.362849   -13.819194    14.626420
Cu    -11.764005    -6.051261    11.951100
Cu    -10.992341   -13.973034     9.889828
Cu    -10.720589   -15.864998     7.659740
Cu    -11.443862   -13.117427     6.502419
Cu    -12.211451   -16.677524    10.398598
Cu     -9.046924   -11.218641    14.085217
Cu    -16.513314   -11.021406    17.078816
Cu     -7.278468   -13.505706    15.152155
Cu    -13.184343    -9.181141    17.171924
Cu     -6.880202   -11.687932    14.273638
Cu    -15.944907   -10.880269    14.742504
Cu     -9.313810   -13.454719    15.058556
Cu     -8.524662    -7.417263    12.395287
Cu    -13.753463    -7.335752    17.570152
Cu    -10.532614   -13.634897    17.268825
Cu     -7.596134    -9.565016    14.232799
Cu    -12.868850   -18.047400    11.686136
Cu    -15.659167    -6.689713    16.499239
Cu    -15.131945    -8.757718    18.104786
Cu    -10.890368   -10.311450    16.731592
Cu    -17.801000   -10.748402    15.297903
Cu     -9.579130    -8.672935    17.414883
Cu    -17.504725    -9.405061    13.586925
Cu    -11.064508   -11.976525    15.597922
Cu    -10.071684    -6.129129    15.181947
Cu     -7.335463   -13.112077    10.009990
Cu    -13.017331   -16.011391     7.579380
Cu    -11.541601    -6.291830    16.578090
Cu     -9.803182   -10.935606     8.146415
Cu    -11.264286    -4.948202    13.831481
Cu     -8.240228   -11.391757     9.251201
Cu    -17.226847   -14.326816    12.649046
Cu    -13.508032   -14.166452     6.869073
Cu    -15.378290   -14.557888    11.586426
Cu    -14.279051    -7.691473    15.176741
Cu     -8.730340   -14.447982    16.705753
Cu    -13.396811    -6.604653    10.259230
Cu    -14.181221   -16.989020    10.013416
Cu    -14.675929   -11.510130    16.653820
Cu    -16.947194    -8.776496    16.964299
Cu    -10.172895   -10.322061    18.616341
Cu    -14.253433   -10.608180    18.246023
Cu     -8.130095   -10.361427    17.841245
Cu    -15.898542   -16.005532    10.202469
Cu    -13.521817   -16.661186    15.375513
Cu    -14.165913   -13.642422    14.952379
Cu    -13.299647   -13.626251    12.803316
Cu    -16.287511   -15.667744    14.085141
Cu    -15.176781   -15.255542    15.817212
Cu    -15.039197   -17.137310    13.973663
Cu    -12.322535   -14.485352    14.618696
Cu    -13.267511   -14.858250    16.532123
Cu    -15.199480   -13.125000    12.901786
Cu    -11.151402   -17.462150    13.963742
Cu    -11.025568   -15.511584    13.457321
Cu    -13.072525   -17.755984    13.637815
Cu     -9.083863   -13.257528     8.312113
Cu    -12.345733    -6.601079    14.080514
Cu    -10.187070   -12.372448    10.499152
Cu    -12.501671   -11.667588    13.012825
Ni     -9.529699   -25.179940     3.317928
Ni     -9.741915   -21.983833     2.433716
Ni     -4.609481   -26.018750     3.303232
Ni     -8.960110   -23.214064     1.393679
Ni     -6.077075   -22.946593     6.512192
Ni     -3.431567   -23.377770     4.121860
Ni     -9.588147   -23.372696    -0.104887
Ni     -5.033343   -24.489443     5.174163
Ni     -5.118455   -23.106561     1.898865
Ni     -8.593613   -25.253033     1.694270
Ni     -7.647993   -21.837113     4.789095
Ni     -4.837251   -21.007184     4.666774
Ni     -6.566965   -20.837581     2.941899
Ni     -7.951696   -21.834287     0.879495
Ni     -3.756369   -23.174604     6.250381
Ni     -4.979539   -24.848745     7.119235
Ni     -4.001473   -24.513440     1.556048
Ni     -3.027534   -25.230807     4.798229
Ni     -6.534498   -26.188263     4.555011
Ni    -10.433958   -23.809356     3.833533
Ni     -9.246244   -25.303307     5.008084
Ni     -4.741353   -26.458465     5.499145
Ni     -7.253429   -26.599758     1.797709
Ni     -8.155551   -25.606487     0.063854
Ni     -7.089754   -24.737888     6.222867
Ni     -5.882069   -23.930850     0.486524
Ni     -5.812558   -22.236117     3.878792
Ni     -6.662428   -23.987356     3.461884
Zn      2.155517   -20.246362   -10.219276
Zn     -1.343623   -21.626520   -10.232761
Zn      0.759527   -19.923981   -14.411133
Zn     -1.300695   -18.816011   -15.053797
Zn      4.095619   -10.708473   -17.036027
Zn     -2.355718   -13.284889   -15.617697
Zn      7.975757   -11.021001   -11.729537
Zn      1.065707   -11.717008   -14.992032
Zn      2.776545   -21.362043   -12.763712
Zn      6.050442   -13.039568   -13.302554
Zn     10.962458   -12.010340   -13.890308
Zn     -0.721362   -15.955673   -18.398826
Zn      8.254456   -12.422581   -10.279655
Zn     -2.497885   -12.632873    -9.113956
Zn      8.666728   -10.748279   -13.727430
Zn     -0.899093   -12.708096    -7.351311
Zn     -2.928360   -18.594834   -15.985004
Zn      9.169810   -14.026783   -12.075607
Zn      9.784366   -11.691469   -12.283493
Zn     -3.186780   -15.843510   -11.229777
Zn     11.538807   -20.964683   -10.224263
Zn      4.894316   -19.060438   -16.656272
Zn      3.036926   -16.194432    -7.276927
Zn      6.706078   -12.172581   -15.106639
Zn      6.517249   -10.763084   -13.170279
Zn     11.107271   -15.636208    -7.526686
Zn     -2.242243   -16.536328   -14.223651
Zn     -0.957864   -13.774611    -9.146029
Zn      8.452505   -23.077043    -8.631914
Zn     -3.373875   -13.793721   -11.257086
Zn     10.401585   -12.860626   -10.884115
Zn      9.619483   -14.883182   -16.786136
Zn      9.502546   -11.393359   -15.410798
Zn     -0.311625   -11.758901    -8.975420
Zn     11.580224   -13.806612   -12.445844
Zn      6.279387   -14.135878   -15.540368
Zn      8.301127   -13.207891   -14.051700
Zn      8.281933   -19.458347   -16.561390
Zn      0.413900   -16.658514   -16.894100
Zn      7.754393   -11.262653   -16.831508
Zn      2.058057   -20.358590   -17.024745
Zn      2.041209   -13.464623    -9.829853
Zn      4.053359   -14.076507   -10.068168
Zn      8.445706   -19.454825    -8.737578
Zn      1.977106   -17.392952    -4.957763
Zn     -1.329137   -20.392253   -16.166141
Zn      9.060019   -12.833457   -16.703009
Zn     -3.906215   -16.498866    -9.134731
Zn      1.430548   -15.915592   -18.737733
Zn      7.171819   -13.666320   -11.765579
Zn     -0.619728   -17.930857   -17.865313
Zn      0.097451   -18.513316   -12.931764
Zn      0.469366   -15.101039   -10.332597
Zn      7.195023   -10.243595   -15.121125
Zn      1.757710   -19.595169   -12.786713
Zn      0.201804   -18.279245   -10.729641
Zn      2.663062   -14.972509   -11.405927
Zn      4.226390   -16.516725   -12.925368
Zn      0.783014   -17.807245   -14.934366
Zn      1.488857   -15.734405   -14.293974
Zn     -0.748305   -16.832363    -9.891709
Zn     -2.582447   -14.488417    -7.855304
Zn      3.485096   -18.646545   -12.883840
Zn     -0.401278   -16.186106   -13.973671
Zn     10.826680   -21.815262    -8.271780
Zn      8.045206   -15.203417   -15.528153
Zn      7.216392   -20.697345    -6.958272
Zn      1.038942   -13.033114   -18.234925
Zn     -1.062795   -10.834174   -12.056105
Zn      9.575668   -16.944550    -7.524217
Zn      2.603809   -18.656550    -7.030661
Zn      0.645881   -13.378904   -16.056433
Zn     -1.038385   -16.787623    -6.843903
Zn      5.391421   -15.325640    -4.569041
Zn     -0.755590   -19.797120    -5.225277
Zn      2.923099   -15.665300    -5.166985
Zn      0.684130   -23.438375   -12.353037
Zn      2.540474   -16.733505    -2.223134
Zn      1.058865   -17.968701    -2.587777
Zn     -0.089283   -19.483291    -3.382344
Zn      6.836757   -21.400173    -8.904235
Zn     -0.289359   -14.462117    -5.071281
Zn      2.328915   -11.494415   -16.302975
Zn      4.518379   -16.335225   -17.135178
Zn     -4.298350   -15.199595   -12.913785
Zn      5.305123   -17.486740   -15.478395
Zn      3.046751   -18.034029   -16.918196
Zn      1.446318   -19.224379    -4.799692
Zn      6.719928   -18.905988    -9.577930
Zn      6.474699   -23.818297    -8.586786
Zn      8.000033   -17.372237    -8.580921
Zn      5.007385   -19.414488    -8.899949
Zn      8.464510   -22.321440   -12.337630
Zn     12.290469   -18.684460   -10.240115
Zn      8.459872   -19.570229    -4.133551
Zn      7.335648   -16.565226    -6.387265
Zn      8.913463   -15.062395    -6.520097
Zn      6.851446   -17.288217   -10.851585
Zn      7.735682   -20.361807   -12.508109
Zn     10.271803   -18.704485    -4.963304
Zn      6.749426   -19.836628    -5.083817
Zn      9.420536   -15.117049    -8.811357
Zn      9.644221   -20.042189   -13.275135
Zn      8.015719   -18.187731   -12.348583
Zn     10.142218   -21.345746   -11.752742
Zn     11.426290   -19.546941   -11.971759
Zn      9.142204   -19.161513   -10.927303
Zn     10.241926   -17.733423    -9.457320
Zn      7.338531   -14.924375    -7.759066
Zn      9.779396   -20.832163    -5.373274
Zn     10.322897   -19.851236    -9.301435
Zn      9.770337   -22.521590   -10.039434
Zn      9.376940   -22.689747    -6.761253
Zn      3.936956    -9.974937   -15.034473
Zn      7.322789   -23.153420    -6.699857
Zn      9.138828   -16.756831   -10.804651
Zn      3.084905   -21.968021   -15.803566
Zn      2.810869   -21.775182    -4.775351
Zn      3.619012   -20.086274   -15.422608
Zn      3.113970    -9.608988   -12.896737
Zn     -0.737282   -17.471070    -3.603067
Zn      2.271815   -18.411598   -10.920284
Zn      6.976738   -21.236080   -15.772921
Zn      2.635818   -22.258600    -9.217247
Zn      3.483250   -11.524117   -13.488830
Zn      2.382766   -13.998508   -16.424695
Zn      2.796012   -11.081112   -11.633179
Zn      0.377295    -9.383439   -15.418190
Zn      7.399075   -15.707821    -9.631786
Zn      7.757185   -23.360900   -10.603473
Zn      5.686119   -23.266448   -10.484484
Zn      8.123895   -21.028559   -10.371916
Zn      6.263672   -19.406477   -11.467231
Zn      4.929438   -22.295577    -8.780342
Zn     -1.794952   -18.086273    -5.414043
Zn      6.956940   -15.025733   -13.583933
Zn      0.272625   -18.823857    -6.702737
Zn     10.211030   -18.123575   -12.615749
Zn      7.110822   -18.516939   -15.499669
Zn      6.495837   -12.721268   -17.277831
Zn      0.597526   -10.696618   -17.521576
Zn     -1.931257   -23.270990    -8.663358
Zn     -4.034320   -20.956652   -10.174555
Zn     -1.016373   -23.878394   -10.389713
Zn     -3.792814   -19.678585   -11.579893
Zn     -1.101342   -21.705278   -13.298003
Zn     -0.982329   -20.148964    -8.808605
Zn     -1.631450   -21.779609    -7.247129
Zn     -3.041969   -19.935316    -7.705362
Zn      0.290410   -21.729099   -11.371863
Zn     -1.315861   -23.281272   -12.360629
Zn     -2.988807   -22.469831   -11.283743
Zn      0.104942   -23.033981    -7.300294
Zn     -3.267922   -21.709829    -8.613161
Zn      0.355199   -21.944730    -9.043399
Zn     -1.789158   -20.060941   -11.110527
Zn     -3.106502   -19.118016    -9.402603
Zn     -2.971504   -20.963421   -12.920369
Zn      0.486614   -24.175426    -8.752197
Zn     -1.025061   -15.996864   -11.801925
Zn      1.386542   -23.848883   -10.429111
Zn      8.066828   -21.741316    -4.930287
Zn      3.371436   -23.461645   -12.899156
Zn      9.081347   -15.585369   -13.752817
Zn     -0.646617   -13.396047   -14.502474
Zn      2.457303   -11.393404   -18.380063
Zn      0.791762   -21.342460    -4.708532
Zn      3.206165   -15.068582   -13.324695
Zn     11.491083   -15.214014   -14.102949
Zn      4.328175   -15.871634    -2.803350
Zn      7.171598   -18.541640   -18.173714
Zn      2.618195   -11.711300    -8.700862
Zn      1.887534   -16.523414    -9.923143
Zn      2.675340   -17.297020   -14.336801
Zn      2.422843   -14.940073    -3.290176
Zn      5.902285   -16.883136    -8.570209
Zn      6.209938   -18.560659    -7.210345
Zn      6.834468   -17.096732   -17.173650
Zn      4.475718   -14.681899    -6.538939
Zn      5.571400   -17.171090    -3.441200
Zn      6.236601   -11.858438   -11.301094
Zn      3.734628   -17.134028   -18.887330
Zn     -3.802082   -16.316087   -15.243905
Zn     -1.647071   -15.995033    -4.964285
Zn      1.537859   -13.807913    -4.818258
Zn      1.122826   -17.113414    -7.255793
Zn     10.124207   -16.248466   -15.416442
Zn      5.059254   -12.468540    -8.800593
Zn      0.487456   -15.708383    -3.148464
Zn      0.911326   -15.005876    -6.830353
Zn      5.200064   -23.050271    -6.929154
Zn      9.841014   -18.912159    -7.071605
Zn     11.648847   -17.856593    -6.586085
Zn      3.599120   -17.906405    -3.804838
Zn      2.798677   -19.180071   -18.488818
Zn      5.048071   -18.841795   -18.739622
Zn     -4.685118   -17.149932   -11.662822
Zn      5.240219   -20.765554    -7.249751
Zn      6.141217   -21.996055    -5.337328
Zn      0.903266   -11.019742   -11.440287
Zn      5.006996   -18.921111    -2.658745
Zn      7.740255   -14.156980   -17.505989
Zn     10.121645   -13.783654   -13.991875
Zn      4.195276   -21.068485   -17.485435
Zn      5.597872   -19.999233   -14.781009
Zn      3.984673   -20.665290    -3.310783
Zn      3.000651   -18.860876    -2.064169
Zn     -1.921849   -12.426239   -13.135778
Zn     10.867771   -13.502748   -15.718287
Zn     12.122558   -19.471857    -8.257804
Zn      1.940813   -20.620945    -6.440584
Zn      3.974305   -13.871116    -4.717304
Zn      5.725259   -16.463613   -18.800741
Zn      0.905459    -9.637529   -12.892720
Zn     -0.949036   -12.160049   -17.431124
Zn     -2.205828   -11.471135   -14.814377
Zn      3.458655   -13.035348   -17.862130
Zn      0.246535   -12.249269   -12.919521
Zn      2.298182    -9.422022   -16.682189
Zn      3.584209   -12.678906   -15.309735
Zn      4.222450   -17.317207    -5.708939
Zn     -1.616961   -17.857210   -12.553637
Zn      8.325728   -17.350478    -4.622276
Zn      5.341247   -20.939784   -10.481213
Zn     11.576299   -17.211199   -11.337097
Zn      7.982421   -18.603847    -6.225483
Zn      3.603740   -19.603694    -5.124320
Zn      6.406201   -22.015740   -11.959510
Zn     10.026102   -16.590598    -5.518347
Zn     11.317158   -15.866905    -9.735617
Zn     12.257370   -17.292853    -8.558201
Zn     11.311801   -20.333646    -6.604199
Zn      6.230032   -20.496037   -17.478352
Zn     -4.683426   -15.118120   -10.354718
Zn      2.575712   -13.725973    -6.562043
Zn      9.053670   -20.969501    -7.553726
Zn      5.113001   -22.094708   -15.294141
Zn      0.392566   -16.457358    -5.186336
Zn      1.930294   -20.423868    -3.008681
Zn     -0.843520   -10.109706   -13.916631
Zn     -0.944794   -10.727098   -16.075926
Zn      2.100922    -9.281107   -14.566396
Zn     -0.978575   -14.023187   -16.872428
Zn      0.479658   -14.828093   -12.252878
Zn      2.049186   -12.761943   -13.554554
Zn      1.475266   -16.969990   -12.222434
Zn      3.881164   -17.059191   -11.000369
Sc    -14.994057   -11.326672    -3.936304
Sc    -20.291743    -1.338539    -0.580854
Sc    -17.788829    -5.671328   -10.916621
Sc    -19.514624   -10.097543    -7.568488
Sc    -12.322227    -5.498491    -9.074134
Sc    -12.715424    -9.979235    -5.288470
Sc    -18.942131     0.651802    -3.717304
Sc    -14.671948    -2.498550    -8.399473
Sc    -13.801411    -8.746904    -9.303221
Sc    -17.174779    -8.983538    -9.653404
Sc    -16.905305    -4.580980     0.993997
Sc    -14.499722    -4.630806   -11.125048
Sc    -24.143785    -1.904562     0.662815
Sc    -17.991277   -12.810660    -8.112778
Sc    -23.759305   -10.744260    -4.486422
Sc    -13.617993   -10.382282    -2.184999
Sc    -23.930330    -6.145167    -5.179219
Sc    -12.945646    -1.385008   -10.250140
Sc    -23.400911    -3.780779   -11.159362
Sc    -17.978965    -7.774931    -3.715342
Sc    -23.816085    -2.626387    -5.375179
Sc    -16.786865    -3.529190   -12.211183
Sc    -23.182554    -2.804337    -9.671394
Sc    -16.640055   -12.308154    -7.032208
Sc    -18.569595   -10.092512     1.002101
Sc    -25.803611    -3.533181    -6.509207
Sc    -22.599631    -1.874787    -2.235665
Sc    -23.380727    -8.329369     0.263121
Sc    -21.538754    -9.518345    -2.400586
Sc    -19.980566    -7.611340     2.405414
Sc    -20.952075   -11.350628    -0.466596
Sc    -21.447389    -2.778784   -10.088560
Sc    -23.567754    -8.034790    -7.594225
Sc    -23.663650    -3.886756    -3.056646
Sc    -20.459170   -10.953301    -4.254094
Sc    -21.546102     1.835035    -5.678555
Sc    -18.104364   -12.410697    -5.869717
Sc    -14.974339    -0.543448    -1.566599
Sc    -21.012065   -12.791750    -5.818022
Sc    -15.650671    -7.283793    -6.744165
Sc    -15.611792    -2.284520   -10.529338
Sc    -20.864199    -0.559145    -8.261478
Sc    -22.845134    -7.173322    -9.197208
Sc    -22.414880    -5.632745    -1.042457
Sc    -13.784469    -2.865884   -12.966262
Sc    -21.244309    -8.154483    -8.885557
Sc    -20.179980    -3.819969    -5.990821
Sc    -22.813710    -7.167420   -11.128156
Sc    -23.399005    -8.934718    -9.561655
Sc    -22.991543    -5.834887    -7.848367
Sc    -13.185388    -1.210146    -5.439891
Sc    -16.385697    -5.180416    -8.304631
Sc    -24.117195     0.725403    -3.614250
Sc    -25.001123    -3.814323    -0.482555
Sc    -25.184081    -8.513308    -5.839165
Sc    -16.065357   -13.027558    -5.480823
Sc    -17.731085     0.263418    -0.083887
Sc    -22.893355    -8.500988    -4.096054
Sc    -23.486540     0.271258    -1.217610
Sc    -25.378866    -1.591921    -1.871955
Sc    -14.543764    -5.044539   -13.735841
Sc    -19.033334    -3.788930   -14.023171
Sc    -18.510220     1.414737    -6.466121
Sc    -23.150237    -2.348457    -3.784082
Sc    -22.110239    -3.384912    -0.159142
Sc    -20.822223    -8.135291    -0.505920
Sc    -12.130096    -7.727624    -2.512280
Sc    -16.340951   -11.632182    -8.698724
Sc    -12.215749    -2.609120    -6.220389
Sc    -21.289831    -9.584538     1.251288
Sc    -16.962533    -3.630922     2.976014
Sc    -20.955936    -9.266896   -11.751594
Sc    -11.526548    -4.048896    -7.160225
Sc    -11.693776    -3.622012    -4.740951
Sc    -24.475218    -6.290867    -9.559510
Sc    -23.517491    -1.167236   -10.172959
Sc    -19.777660    -3.812421    -2.923975
Sc    -16.984484    -7.816741    -5.755028
Sc    -22.718028    -2.652805    -7.949913
Sc    -22.146849    -2.303974     2.463062
Sc    -19.223878    -6.469824   -13.645722
Sc    -18.341597    -2.702337    -2.307045
Sc    -15.452817    -7.366970    -3.650706
Sc    -12.230932    -3.650224   -11.013015
Sc    -24.752246    -3.399163    -9.030290
Sc    -19.265148     0.385343    -7.815554
Sc    -16.063789    -6.526785   -12.155876
Sc    -21.863190    -9.627026    -5.755173
Sc    -12.402252    -1.812227    -7.821997
Sc    -21.510175   -10.780112    -9.513104
Sc    -26.042386    -6.013476    -4.428609
Sc    -22.642018    -6.993376     2.135416
Sc    -23.044717     0.932602    -8.472296
Sc    -24.730426    -6.395546     0.184056
Sc    -18.577497   -10.079566    -1.299859
Sc    -18.262918    -2.742227    -5.113007
Sc    -21.554816    -5.854277    -9.867243
Sc    -15.748819    -3.032557    -2.334751
Sc    -17.348695     0.340579    -7.968344
Sc    -20.202358    -0.199101    -6.329779
Sc    -14.336605    -0.628490   -12.126400
Sc    -20.131405     1.790408    -8.549578
Sc    -16.745663    -0.170405   -12.760635
Sc    -14.804518   -11.798130    -7.104710
Sc    -22.200697    -1.103196    -4.593302
Sc    -18.903853    -0.404961    -9.408189
Sc    -21.004973    -5.512257    -4.343974
Sc    -11.325373    -6.934026    -5.014590
Sc    -17.069065    -7.836911   -13.695189
Sc    -18.107516    -1.916536   -11.002618
Sc    -20.692317     0.965412    -1.227904
Sc    -23.083663   -10.964527    -7.321863
Sc    -15.633915     0.221230   -10.246370
Sc    -22.101875   -11.792956    -2.948495
Sc    -19.275852   -11.033817   -10.370901
Sc    -21.915704    -4.417275    -5.432341
Sc    -22.118116   -10.206791    -3.990632
Sc    -13.840832    -5.570038    -5.823624
Sc    -21.506025     0.742484   -10.710777
Sc    -19.647122    -4.051219   -11.537152
Sc    -16.687583    -6.901209     1.985949
Sc    -23.715939    -4.487532     1.746647
Sc    -25.587502    -0.936989    -4.933598
Sc    -12.513310    -6.475350   -11.173274
Sc    -13.786668    -8.630860    -0.341827
Sc    -16.203711    -2.283907   -14.093980
Sc    -19.396198   -13.197643    -3.723043
Sc    -14.447117   -10.646217   -10.132474
Sc    -11.719676    -8.252660    -8.095264
Sc    -19.327512     0.486284   -12.038434
Sc    -17.070677   -10.993554   -11.245542
Sc    -12.562507    -5.524770    -0.906059
Sc    -23.635686    -6.861867    -2.353442
Sc    -19.929218    -0.594587     1.833038
Sc    -13.993131    -7.384150   -12.524677
Sc    -18.917396   -12.353274    -1.409416
Sc    -26.148302    -3.446507    -3.775190
Sc    -21.491577    -3.556132   -13.064808
Sc    -17.004536    -5.070868   -14.269717
Sc    -19.484504    -2.543430     3.333218
Sc    -15.498160    -9.135423   -11.977338
Sc    -14.685521     0.312665    -8.107993
Sc    -24.894806    -0.983536    -7.523562
Sc    -23.630516     0.751855    -6.189547
Sc    -14.397691    -5.909732     1.045532
Sc    -18.938255    -5.401916     2.930136
Sc    -17.567554     1.469679   -10.591907
Sc    -16.165258    -9.186661     0.349045
Sc    -21.019175    -5.640936     1.039093
Sc    -19.737945    -3.417482     1.198913
Sc    -19.561519    -7.406272   -11.300836
Sc    -21.488419    -4.642561     3.236914
Sc    -16.162282   -11.258468    -1.063233
Sc    -13.287264    -2.822281    -0.885374
Sc    -25.334264    -8.330447    -2.903377
Sc    -21.603567     1.197815    -3.347532
Sc    -20.447427   -12.375528    -8.075373
Sc    -18.825464    -1.178102    -3.597884
Sc    -13.607336    -8.503425    -5.675027
Sc    -18.248022    -8.989933    -7.075170
Sc    -17.211421    -6.530292    -9.430384
Sc    -16.602203    -7.889418    -8.133466
Sc    -14.239583    -8.289622    -7.535289
Sc    -18.687256    -1.353303    -1.221294
Sc    -14.732060    -4.106613    -7.331855
Sc    -17.218860    -3.902477    -0.512721
Sc    -13.787928    -6.307667    -8.529809
Sc    -15.522876    -9.861693    -4.984390
Sc    -20.071958    -5.657971    -6.919062
Sc    -19.073655    -3.205804    -8.768052
Sc    -16.852891    -3.114166    -6.893374
Sc    -13.533972    -3.586880    -3.326654
Sc    -16.773024    -6.107077    -3.087969
Sc    -15.811046     0.249940    -5.325835
Sc    -19.997810    -6.999522    -3.148158
Sc    -14.498958    -5.444268    -3.200230
Sc    -19.425258    -5.778765    -0.871890
Sc    -18.453306    -4.446261    -7.155721
Sc    -17.771458    -5.495349    -4.595479
Sc    -16.470654    -1.272052    -4.711922
Sc    -15.264968    -7.128298    -1.444495
Sc    -18.367309    -9.322524    -4.197380
Sc    -15.530011    -4.917843    -4.228135
Sc    -18.356522    -5.250829    -2.589099
Sc    -19.041348    -7.554887    -5.884748
Sc    -16.353456    -8.966165    -3.561118
Sc    -16.150438    -5.303755    -1.743179
Sc    -17.164008    -1.570085    -2.511937
Sc    -18.426695    -5.877093    -8.084273
Sc    -15.545796    -3.279099    -5.383417
Sc    -16.968254    -5.589001    -5.845264
Sc    -17.211445    -3.372439    -3.908361
Sc    -14.647748    -6.996015    -5.327848
Sc    -18.822315    -5.321031    -5.590827
Sc    -25.761360    -5.499424    -1.987885
Sc    -21.297929    -1.238629   -12.260221
Sc    -25.698331    -5.838714    -7.117612
Sc    -14.794449    -2.946939     1.104828
Sc    -17.009530   -12.706698    -2.913660
Sc    -18.961741    -1.497481   -13.474158
Sc    -21.399030    -6.014486   -12.840907
Sc    -22.264442    -0.300679     0.818597
Sc    -18.314642    -7.723128     0.576643
Sc    -23.768281    -9.948391    -1.203073
Sc    -18.588214    -9.301330   -12.454234
Sc    -17.110295    -1.516681     1.641757
Fe    -13.592854    16.963563    -9.332385
Fe    -14.878758     9.011968    -6.126031
Fe    -10.307386    13.283121    -8.661503
Fe    -14.879312    11.905834    -9.351280
Fe    -17.921247    14.323033    -7.848969
Fe    -17.350385    12.878807    -6.570210
Fe    -16.124423    17.784850    -0.331615
Fe    -18.348822    13.159442     4.102819
Fe     -7.573019    17.548149    -6.067008
Fe    -18.671277    11.714682     6.630347
Fe     -9.449818    11.273802    -7.371210
Fe    -16.805585    15.417012     5.305481
Fe    -11.971842    13.758950    -8.151325
Fe    -11.468360    18.610601     8.386986
Fe    -16.702766    10.186018     7.253603
Fe    -15.622711    20.332418    -4.555527
Fe     -8.158882    14.862923     2.222491
Fe    -17.305579    12.118598     8.112403
Fe    -15.381242    12.940102     8.904537
Fe     -7.998306    21.209980     3.097565
Fe     -8.307824    13.033109    -3.780188
Fe    -16.959071    13.661619    -2.329176
Fe    -12.292772    11.197073   -10.118252
Fe    -15.801158    10.725777     5.469774
Fe    -16.672795    18.989767     1.822481
Fe    -15.208756    11.381255     7.546190
Fe    -14.755535    15.589637     5.958535
Fe    -15.042367    15.133982     8.462268
Fe    -13.908333    14.253936    -5.734017
Fe    -11.953299    16.167586     0.435574
Fe    -19.908810    13.289145     5.308126
Fe    -14.561547    18.642625    -5.350959
Fe    -10.901843    11.172733    -5.621775
Fe     -9.932798    17.101867     0.350884
Fe    -15.728045    12.278545     3.785100
Fe    -10.537432    16.533496     2.465643
Fe    -10.941600    17.386677     6.759859
Fe    -15.018734     8.685404     3.612881
Fe    -11.494802    11.539770     7.246151
Fe    -13.298240    17.472674    -2.363216
Fe    -18.288395    15.861119     6.612000
Fe    -18.734036    16.684690    -4.184927
Fe    -13.844374    12.897986     1.560999
Fe    -10.377073    10.703272     0.479422
Fe    -13.642631    19.455820    -3.773003
Fe    -11.350468    16.210959     8.812200
Fe    -19.050404    15.130263     4.809067
Fe    -20.613497    14.786106     0.770733
Fe    -13.157883     8.206228    -6.100260
Fe    -14.006624    15.252156   -10.464635
Fe    -14.743015    14.218757     4.413684
Fe    -10.225384    13.027091    -6.319059
Fe     -9.803364    21.179050    -6.459785
Fe     -8.170515    11.289973    -4.790335
Fe    -12.873989    16.961434     8.035597
Fe    -17.247707    14.558126     8.278644
Fe    -15.784966    13.773838     7.080522
Fe    -15.478516    14.245322    -9.537120
Fe    -14.280768     9.749893    -1.976937
Fe    -18.827877    11.499076    -6.748223
Fe    -10.205781    14.777983   -10.539043
Fe     -7.634001    20.077100     1.419020
Fe    -13.047962    11.505137     2.086915
Fe    -13.556262    20.148816    -7.461905
Fe    -16.871861    13.198833     5.840814
Fe    -16.695655    14.228415     3.626782
Fe    -19.444947    11.280720     4.589187
Fe    -11.261875     9.168002     1.603373
Fe    -10.319881    10.953066    -9.324197
Fe     -8.814652    16.487293     6.504215
Fe    -14.702623    18.590875     0.768108
Fe    -17.581107    17.265669     3.097007
Fe     -7.525447    15.155061     4.382400
Fe    -19.359998    18.582584    -3.056220
Fe    -20.534021    15.327533    -3.976389
Fe    -17.264705    16.899400    -3.236758
Fe    -17.012150    16.191051    -5.347029
Fe    -19.809176    17.834038    -5.219666
Fe    -17.928755    19.146994    -4.221775
Fe    -18.455050    16.789775    -6.865688
Fe    -20.207872    16.841925    -2.672286
Fe    -19.536736    15.395402    -5.671010
Fe    -17.541713    18.294689    -5.983398
Fe    -10.000713    15.900971    -4.065814
Fe    -11.930377    18.391472    -0.960271
Fe    -17.079048     9.303639    -3.133535
Fe    -10.077837    16.689653    -9.206470
Fe    -14.984455    14.320972    -7.399619
Fe     -8.688659    12.703482    -9.200885
Fe    -14.236402    12.361832    -7.066387
Fe    -19.325400    19.152694     0.896147
Fe     -9.539531    13.378894     2.382895
Fe     -9.044881    11.026514    -3.040366
Fe    -18.339445    11.446230    -1.650730
Fe    -18.844089     9.499206    -4.025367
Fe    -19.669512    10.601760     1.590875
Fe    -17.502545    14.049977    -3.939847
Fe    -14.141209     7.847979     5.229922
Fe    -19.374400     9.973616    -0.241117
Fe    -16.714728    10.092401    -7.289602
Fe     -7.191813    20.439087    -2.542353
Fe    -14.699575    21.044519    -2.876289
Fe    -10.359259    15.525261    -7.424376
Fe    -11.843155    13.209720     3.976192
Fe     -9.835975    10.909797     6.366915
Fe    -13.027149    23.217346     1.581764
Fe    -12.895775    19.618976    -8.965458
Fe    -17.286684     8.412884     2.991730
Fe    -12.736639    15.400737    -8.484309
Fe    -13.688415    13.369134    -8.904488
Fe    -15.025467    16.163277    -8.150468
Fe    -16.387475    11.962488    -4.633914
Fe     -9.674798    19.595581     6.942428
Fe    -11.124960    10.426045     8.589483
Fe    -15.750677    19.456851     5.319587
Fe    -16.313316    16.467343     7.254066
Fe     -6.328852    18.559951    -3.731877
Fe     -8.343991    15.923043    -0.060768
Fe     -9.360653    18.724887     1.444251
Fe    -11.644821    19.876930    -2.734806
Fe     -9.304188    17.293706    -4.989930
Fe     -9.946351    14.343721    -0.015854
Fe    -10.112815    14.198721    -3.191730
Fe     -8.260723    15.409632    -2.835900
Fe     -7.409317    17.761377     0.804597
Fe    -10.581654    15.708635    -1.217460
Fe     -9.408506    20.891588    -2.794163
Fe    -11.717063    17.502257    -4.443738
Fe    -14.850593    20.561865     0.139873
Fe    -15.612522    16.726955     1.763045
Fe    -18.780984    19.344538     3.049271
Fe    -10.039740    15.535050     7.543259
Fe    -19.419714    17.579409     2.284462
Fe     -8.805573    20.149217    -7.959881
Fe    -13.349633    16.092725    -6.574685
Fe    -20.145971    12.705970    -6.108037
Fe    -18.173040    20.498830    -0.445618
Fe    -15.623521    19.742227     3.160324
Fe    -10.207882     9.202935    -0.811161
Fe     -8.728718    18.335337     5.669506
Fe    -11.471047    15.519874     4.202514
Fe     -7.147244    13.425274    -5.351316
Fe    -16.294909     7.858948     4.845066
Fe     -7.738848    18.139606    -2.436172
Fe    -10.787489    20.357630    -1.015809
Fe     -6.585022    16.895416    -0.687054
Fe     -8.185747    19.199959    -4.277881
Fe     -7.399570    16.186077    -4.383272
Fe     -7.625663    18.005679    -8.024606
Fe    -11.114198    19.063080     0.566925
Fe     -7.240122    14.774375    -1.270211
Fe     -6.388336    16.659388    -7.125859
Fe    -13.146533     9.951719     7.820394
Fe    -17.693991    17.109888     0.975669
Fe     -8.687840    22.271618    -4.772061
Fe    -12.846834    22.739686    -0.405167
Fe    -11.202512     9.900140    -7.536444
Fe    -12.131632    14.412492   -10.842190
Fe    -12.547811    12.756814    -5.202683
Fe    -11.719145    17.060165    -7.815734
Fe     -9.351595    17.674411     8.120947
Fe    -13.877413    11.425574    -2.360894
Fe    -12.969692     7.985056    -1.958379
Fe    -15.354037     8.325574    -1.054091
Fe     -8.839489    13.479390    -1.485223
Fe     -6.396940    16.544111    -2.691997
Fe    -11.710049    16.450511   -10.292393
Fe    -11.309508    13.797558    -1.693344
Fe     -8.758040    15.062704    -9.277944
Fe     -6.897284    19.617611     3.253867
Fe     -8.810780    18.794013    -0.643860
Fe     -9.910364    18.920974    -2.896076
Fe    -13.765485    22.530038    -4.320553
Fe    -14.287034    21.691919    -6.226419
Fe    -11.855841    17.477573     3.291826
Fe    -14.995558    17.430279    -2.933975
Fe    -21.347618    16.213940    -0.039072
Fe    -11.625162     9.346710     6.587298
Fe    -16.920340     8.626676    -5.209605
Fe    -19.103641    11.249816    -4.570135
Fe    -11.861484    22.609591    -4.038075
Fe    -12.633527    11.923098     9.112976
Fe    -15.349465    10.311967    -4.488004
Fe    -12.111364     8.853590    -3.634638
Fe     -7.710654    20.938676    -6.266391
Fe    -11.990639    22.532797     3.580735
Fe    -10.717767    20.253091    -7.873530
Fe    -17.159110    14.779367    -0.538965
Fe    -20.951443    11.982765     0.385118
Fe     -9.578709    16.317151     4.076357
Fe    -13.856518    13.868022     6.879259
Fe    -16.429738    19.842857    -1.095709
Fe    -15.678153    17.729144     4.031451
Fe    -16.338227    13.261820     0.636340
Fe    -17.762996    20.847721     1.611189
Fe    -21.328238    15.001014     2.389973
Fe    -19.217020    14.778906    -1.125426
Fe    -11.742441    14.468050    -6.132916
Fe    -18.175520    18.413088    -0.509140
Fe    -14.561350    20.909414     4.198887
Fe    -17.442241    10.118054    -0.072057
Fe    -10.786956    12.710187   -10.690767
Fe     -8.747339    14.142771    -7.436808
Fe    -10.824802    13.239262     6.430603
Fe    -11.534951    13.436641     8.732873
Fe    -12.244317    15.332551    -3.103368
Fe     -7.090093    16.574377     3.115461
Fe    -12.775956     9.954434     4.596661
Fe    -10.991270    21.163963     2.633688
Fe    -10.303419    11.317229     4.143220
Fe     -9.891389    22.896109     2.779994
Fe    -11.410073    17.073772    -2.484633
Fe     -8.617404    20.701410    -0.961773
Fe    -15.718863    21.726996     2.067286
Fe    -15.915517     8.122130     1.633792
Fe    -17.381265    11.191622     3.998370
Fe    -15.277717    14.072948    -2.851689
Fe    -17.149542    20.747611     3.797138
Fe    -13.054767    15.251427     1.691524
Fe    -14.493830    10.533639     1.338256
Fe     -7.731882    13.017727     1.470217
Fe    -12.514667    11.717810     0.272499
Fe     -6.811562    21.645811     0.790373
Fe     -8.230803    13.416795     3.974292
Fe    -12.056744    18.016638     5.486909
Fe    -14.562370    12.316460     5.619167
Fe    -16.360320    11.899549    -0.886027
Fe    -13.314569    18.562683     7.030154
Fe     -9.505789    23.080750     0.536741
Fe    -18.750319    13.795698     6.987248
Fe     -9.684782    12.602473     7.974359
Fe    -13.933338    20.301053     2.089145
Fe    -10.425529    19.473184     5.102437
Fe    -12.192547    10.266872    -2.281430
Fe    -12.796847    11.097203    -6.332813
Fe    -13.109116     8.719155     0.969039
Fe     -9.580955     9.957163     2.256179
Fe    -11.044340    23.400242    -0.710047
Fe    -11.845834     7.574080    -0.063726
Fe    -10.141261     7.941165     0.955303
Fe    -12.233344     7.382412     2.410545
Fe    -10.974215     8.493184     3.576036
Fe    -10.424656    22.584372    -5.904829
Fe    -16.398341    21.713590    -0.012566
Fe    -15.272847    19.398159    -7.927611
Fe    -14.732960     7.025704     2.946577
Fe    -19.970511    12.706784     1.810226
Fe    -14.175372    18.289082     2.929804
Fe    -19.646099    13.042771    -2.458237
Fe    -13.442235    10.477656    -8.586636
Fe    -17.739613    11.517261     1.314948
Fe    -11.918625    11.805402    -8.011148
Fe    -14.411676     8.158569    -3.161227
Fe    -18.003331    10.097809     5.615000
Fe    -11.877079    20.040416     6.568878
Fe    -17.756411    18.676518     4.729869
Fe    -10.454438    18.995762    -4.829299
Fe     -6.449254    19.085303    -1.029322
Fe    -18.256768    11.983860    -8.480376
Fe    -20.435463    11.316877    -1.482833
Fe    -13.405430    12.817464   -10.815145
Fe    -18.460397    14.281435     1.344203
Fe    -21.030541    13.474048    -1.109279
Fe     -9.470260    17.235056    -2.000181
Fe    -11.320490    22.714336     1.364216
Fe    -18.404552    12.960940    -0.124880
Fe    -12.517887    21.540779    -5.786486
Fe    -17.201976    10.454668    -5.327191
Fe    -12.137712    11.588977     4.291741
Fe    -13.423885    15.129093    -0.718639
